Ti7 O11
1.0
18.000000 0.000000 0.000000
0.000000 18.000000 0.000000
0.000000 0.000000 18.000000
Ti O
7 11
direct
0.550270 0.351745 0.454941 Ti
0.480373 0.490106 0.434585 Ti
0.629395 0.467492 0.374608 Ti
0.525660 0.442212 0.677230 Ti
0.461740 0.531948 0.563116 Ti
0.630944 0.503990 0.578513 Ti
0.458539 0.373178 0.548990 Ti
0.450700 0.384857 0.450219 O
0.416509 0.498043 0.362367 O
0.543549 0.411440 0.366959 O
0.643447 0.412025 0.464452 O
0.562675 0.543299 0.383278 O
0.421283 0.595267 0.446026 O
0.538886 0.538132 0.641530 O
0.555530 0.573833 0.520007 O
0.429012 0.436889 0.619501 O
0.614961 0.416152 0.632013 O
0.531474 0.448796 0.541055 O
