Al96 O48
1.0
8.428300 0.000000 0.000000
0.000000 14.598200 0.000000
0.000000 0.000000 16.583210
Al  O
96  48
Selective dynamics
direct
0.000000 0.733823 0.649202 T T T Al mv
0.000000 0.067157 0.646451 T T T Al mv
0.166667 0.567157 0.648512 T T T Al mv
0.833335 0.567157 0.648512 T T T Al mv
0.666668 0.067157 0.646451 T T T Al mv
0.666668 0.733823 0.649202 T T T Al mv
0.500001 0.567157 0.648512 T T T Al mv
0.333334 0.067157 0.646451 T T T Al mv
0.333334 0.733823 0.649202 T T T Al mv
0.500001 0.900488 0.649889 T T T Al mv
0.833335 0.900488 0.649889 T T T Al mv
0.166667 0.900488 0.649889 T T T Al mv
0.833335 0.233824 0.647146 T T T Al mv
0.166667 0.233824 0.647146 T T T Al mv
0.666668 0.400490 0.647826 T T T Al mv
0.000000 0.400490 0.647826 T T T Al mv
0.500001 0.233824 0.647146 T T T Al mv
0.333334 0.400490 0.647826 T T T Al mv
0.844678 0.119965 0.504165 T T T Al mv
0.291062 0.448777 0.502064 T T T Al mv
0.305746 0.626850 0.501485 T T T Al mv
0.692100 0.283947 0.507046 T T T Al mv
0.568952 0.927471 0.489455 T T T Al mv
0.056347 0.775582 0.479055 T T T Al mv
0.346928 0.166667 0.356387 T T T Al mv
0.846928 0.666667 0.356387 T T T Al mv
0.346928 0.833336 0.356387 T T T Al mv
0.846928 0.333333 0.356387 T T T Al mv
0.846928 0.000000 0.356387 T T T Al mv
0.346928 0.500000 0.356387 T T T Al mv
0.513593 0.333333 0.326767 T T T Al mv
0.513593 0.666666 0.326767 T T T Al mv
0.013594 0.833336 0.326767 T T T Al mv
0.013594 0.500000 0.326767 T T T Al mv
0.013594 0.166667 0.326767 T T T Al mv
0.513593 0.000000 0.326767 T T T Al mv
0.346928 0.500000 0.218159 F F F Al
0.346928 0.833336 0.218159 F F F Al
0.846928 0.666667 0.218159 F F F Al
0.846928 0.333333 0.218159 F F F Al
0.346928 0.166667 0.218159 F F F Al
0.846928 0.000000 0.218159 F F F Al
0.680261 0.166667 0.086603 F F F Al
0.513593 0.333333 0.188544 F F F Al
0.680261 0.833336 0.086603 F F F Al
0.680261 0.500000 0.086603 F F F Al
0.513593 0.666666 0.188544 F F F Al
0.180259 0.333333 0.086603 F F F Al
0.013594 0.166667 0.188544 F F F Al
0.180259 0.000000 0.086603 F F F Al
0.013594 0.833336 0.188544 F F F Al
0.180259 0.666666 0.086603 F F F Al
0.013594 0.500000 0.188544 F F F Al
0.513593 0.000000 0.188544 F F F Al
0.346928 0.166667 0.056983 F F F Al
0.846928 0.000000 0.056983 F F F Al
0.846928 0.333333 0.056983 F F F Al
0.346928 0.500000 0.056983 F F F Al
0.846928 0.666667 0.056983 F F F Al
0.346928 0.833336 0.056983 F F F Al
0.833335 0.344210 0.787933 F F F Al
0.166667 0.344210 0.787933 F F F Al
0.666668 0.510876 0.788619 F F F Al
0.000000 0.510876 0.788619 F F F Al
0.500001 0.344210 0.787933 F F F Al
0.333334 0.510876 0.788619 F F F Al
0.833335 0.677543 0.789308 F F F Al
0.166667 0.677543 0.789308 F F F Al
0.666668 0.844207 0.789994 F F F Al
0.000000 0.844207 0.789994 F F F Al
0.500001 0.677543 0.789308 F F F Al
0.333334 0.844207 0.789994 F F F Al
0.500001 0.010877 0.786557 F F F Al
0.833335 0.010877 0.786557 F F F Al
0.166667 0.010877 0.786557 F F F Al
0.666668 0.177543 0.787246 F F F Al
0.000000 0.177543 0.787246 F F F Al
0.333334 0.177543 0.787246 F F F Al
0.833335 0.121262 0.927350 F F F Al
0.166667 0.121262 0.927350 F F F Al
0.500001 0.121262 0.927350 F F F Al
0.833335 0.454595 0.928725 F F F Al
0.166667 0.454595 0.928725 F F F Al
0.666668 0.287929 0.928039 F F F Al
0.000000 0.287929 0.928039 F F F Al
0.500001 0.454595 0.928725 F F F Al
0.333334 0.287929 0.928039 F F F Al
0.666668 0.621262 0.929414 F F F Al
0.000000 0.621262 0.929414 F F F Al
0.833335 0.787926 0.930100 F F F Al
0.166667 0.787926 0.930100 F F F Al
0.500001 0.787926 0.930100 F F F Al
0.333334 0.621262 0.929414 F F F Al
0.333334 0.954597 0.930780 F F F Al
0.000000 0.954597 0.930780 F F F Al
0.666668 0.954597 0.930780 F F F Al
0.034757 0.053430 0.479566 T T T O mv
0.185506 0.429589 0.395597 T T T O mv
0.498990 0.427683 0.408176 T T T O mv
0.344001 0.287041 0.389174 T T T O mv
0.878671 0.781809 0.401609 T T T O mv
0.165718 0.772239 0.384006 T T T O mv
0.064350 0.922662 0.410628 T T T O mv
0.208029 0.947014 0.409092 T T T O mv
0.053416 0.637344 0.402403 T T T O mv
0.663461 0.268278 0.392110 T T T O mv
0.507343 0.089995 0.409846 T T T O mv
0.185480 0.081798 0.386055 T T T O mv
0.513593 0.231285 0.269132 F F F O
0.360521 0.384358 0.269132 F F F O
0.666667 0.384358 0.269132 F F F O
0.513593 0.564618 0.269132 F F F O
0.360521 0.717691 0.269132 F F F O
0.666667 0.717691 0.269132 F F F O
0.166667 0.884356 0.269132 F F F O
0.860521 0.884356 0.269132 F F F O
0.013594 0.731282 0.269132 F F F O
0.013594 0.397951 0.269132 F F F O
0.166667 0.551025 0.269132 F F F O
0.860521 0.551025 0.269132 F F F O
0.166667 0.217691 0.269132 F F F O
0.860521 0.217691 0.269132 F F F O
0.013594 0.064618 0.269132 F F F O
0.513593 0.897953 0.269132 F F F O
0.360521 0.051025 0.269132 F F F O
0.666667 0.051025 0.269132 F F F O
0.693854 0.282309 0.137571 F F F O
0.846928 0.102049 0.137571 F F F O
0.500000 0.115643 0.137571 F F F O
0.693854 0.948973 0.137571 F F F O
0.846928 0.768718 0.137571 F F F O
0.500000 0.782309 0.137571 F F F O
0.693854 0.615642 0.137571 F F F O
0.846928 0.435382 0.137571 F F F O
0.500000 0.448976 0.137571 F F F O
0.000000 0.282309 0.137571 F F F O
0.346928 0.268715 0.137571 F F F O
0.193854 0.448976 0.137571 F F F O
0.193854 0.115642 0.137571 F F F O
0.000000 0.948973 0.137571 F F F O
0.346928 0.935382 0.137571 F F F O
0.000000 0.615642 0.137571 F F F O
0.346928 0.602048 0.137571 F F F O
0.193854 0.782309 0.137571 F F F O

