Ti6 O10
1.0
18.000000 0.000000 0.000000
0.000000 18.000000 0.000000
0.000000 0.000000 18.000000
Ti O
6 10
direct
0.422142 0.584070 0.462809 Ti
0.517240 0.351472 0.545299 Ti
0.464076 0.565735 0.385346 Ti
0.362974 0.477140 0.547775 Ti
0.536501 0.499759 0.526413 Ti
0.580803 0.637891 0.507462 Ti
0.538614 0.345397 0.396262 O
0.488245 0.654603 0.472636 O
0.497076 0.514791 0.443447 O
0.538229 0.411624 0.585881 O
0.450445 0.395376 0.476850 O
0.572060 0.526798 0.434020 O
0.637026 0.525996 0.475575 O
0.461529 0.398869 0.614654 O
0.528626 0.409535 0.499360 O
0.608395 0.426952 0.457528 O
