Ti6 O11
1.0
18.000000 0.000000 0.000000
0.000000 18.000000 0.000000
0.000000 0.000000 18.000000
Ti O
6 11
direct
0.515897 0.461738 0.347685 Ti
0.373773 0.386807 0.439982 Ti
0.571833 0.368651 0.494118 Ti
0.590136 0.519294 0.574558 Ti
0.436445 0.514765 0.545395 Ti
0.433879 0.482568 0.377170 Ti
0.576651 0.455340 0.593553 O
0.331469 0.513051 0.510820 O
0.428823 0.408145 0.608338 O
0.543085 0.581047 0.669060 O
0.489882 0.600853 0.541777 O
0.606075 0.493242 0.647853 O
0.602378 0.508972 0.369194 O
0.460040 0.557967 0.454122 O
0.427891 0.386612 0.487208 O
0.472631 0.427556 0.662591 O
0.670266 0.522451 0.534812 O
