Ti7 O11
1.0
18.000000 0.000000 0.000000
0.000000 18.000000 0.000000
0.000000 0.000000 18.000000
Ti O
7 11
direct
0.532450 0.476397 0.376397 Ti
0.388103 0.538507 0.468801 Ti
0.538460 0.578407 0.498773 Ti
0.396612 0.610230 0.403627 Ti
0.431234 0.608503 0.554328 Ti
0.527999 0.427307 0.641929 Ti
0.555481 0.557825 0.646039 Ti
0.482848 0.600481 0.588718 O
0.473699 0.469570 0.477531 O
0.593828 0.550159 0.414447 O
0.447232 0.621066 0.466231 O
0.517334 0.366836 0.415552 O
0.625508 0.429390 0.441435 O
0.396348 0.525691 0.561045 O
0.425727 0.409055 0.516980 O
0.489386 0.492926 0.683964 O
0.580543 0.362934 0.588961 O
0.617263 0.482907 0.612774 O
