Ti7 O11
1.0
18.000000 0.000000 0.000000
0.000000 18.000000 0.000000
0.000000 0.000000 18.000000
Ti O
7 11
direct
0.502373 0.317179 0.489040 Ti
0.439149 0.570743 0.546421 Ti
0.624063 0.609142 0.426315 Ti
0.396132 0.422030 0.608530 Ti
0.576040 0.618203 0.597442 Ti
0.382232 0.603457 0.487458 Ti
0.430104 0.592105 0.429289 Ti
0.458207 0.372352 0.406635 O
0.390256 0.526580 0.508251 O
0.383598 0.349142 0.502225 O
0.637490 0.452806 0.494334 O
0.586187 0.490104 0.541642 O
0.624303 0.381925 0.409681 O
0.336953 0.544379 0.462345 O
0.537019 0.373698 0.421942 O
0.443491 0.643985 0.484917 O
0.506429 0.384987 0.652495 O
0.531652 0.670532 0.458080 O
