Ti7 O11
1.0
18.000000 0.000000 0.000000
0.000000 18.000000 0.000000
0.000000 0.000000 18.000000
Ti O
7 11
direct
0.538998 0.373282 0.425629 Ti
0.347136 0.560044 0.492043 Ti
0.507009 0.527002 0.412077 Ti
0.425335 0.428468 0.523782 Ti
0.567517 0.379924 0.589978 Ti
0.530949 0.588228 0.575161 Ti
0.476256 0.473693 0.688628 Ti
0.449903 0.427034 0.419273 O
0.585856 0.464031 0.430527 O
0.567561 0.591794 0.468455 O
0.322701 0.472034 0.521609 O
0.509570 0.465338 0.590767 O
0.502889 0.340420 0.522760 O
0.457676 0.640250 0.614017 O
0.449512 0.535062 0.502403 O
0.616161 0.568706 0.617789 O
0.569244 0.676906 0.563661 O
0.515106 0.560450 0.695422 O
