Ti7 O11
1.0
18.000000 0.000000 0.000000
0.000000 18.000000 0.000000
0.000000 0.000000 18.000000
Ti O
7 11
direct
0.430973 0.422088 0.393408 Ti
0.574006 0.368126 0.420618 Ti
0.581133 0.513712 0.373274 Ti
0.531046 0.658544 0.441443 Ti
0.469863 0.467134 0.546662 Ti
0.621050 0.522553 0.528572 Ti
0.561944 0.498071 0.672994 Ti
0.479582 0.372899 0.470513 O
0.529088 0.424286 0.345531 O
0.638128 0.455762 0.437699 O
0.418927 0.501986 0.453545 O
0.460839 0.650978 0.385617 O
0.537224 0.548877 0.464866 O
0.405943 0.399075 0.573161 O
0.471162 0.462704 0.662633 O
0.583906 0.442150 0.585894 O
0.412267 0.539314 0.575561 O
0.536851 0.560361 0.594617 O
