Ti7 O11
1.0
18.000000 0.000000 0.000000
0.000000 18.000000 0.000000
0.000000 0.000000 18.000000
Ti O
7 11
direct
0.525214 0.374188 0.491280 Ti
0.368345 0.609139 0.457931 Ti
0.507579 0.510773 0.395547 Ti
0.412393 0.481120 0.543722 Ti
0.552317 0.464386 0.621606 Ti
0.455022 0.590428 0.649683 Ti
0.518033 0.630306 0.504253 Ti
0.446662 0.515151 0.321437 O
0.450210 0.314729 0.476734 O
0.586222 0.299648 0.496367 O
0.436517 0.439186 0.451241 O
0.546256 0.409286 0.393194 O
0.454868 0.616861 0.419376 O
0.580489 0.524022 0.333788 O
0.582300 0.570378 0.457369 O
0.471373 0.404913 0.589628 O
0.601383 0.443587 0.537819 O
0.494532 0.546697 0.573878 O
