Ti6 O11
1.0
18.000000 0.000000 0.000000
0.000000 18.000000 0.000000
0.000000 0.000000 18.000000
Ti O
6 11
Selective dynamics
direct
0.385808 0.477291 0.391748 F F F Ti
0.570272 0.554418 0.454426 F F F Ti
0.417852 0.545199 0.598428 F F F Ti
0.464563 0.607397 0.476754 F F F Ti
0.479957 0.409320 0.642694 F F F Ti
0.458973 0.511942 0.513295 F F F Ti
0.498992 0.416559 0.410446 F F F O
0.447501 0.558944 0.373339 F F F O
0.509690 0.543937 0.401112 F F F O
0.553902 0.459339 0.680622 F F F O
0.416171 0.365649 0.569867 F F F O
0.627306 0.376796 0.500446 F F F O
0.554761 0.384213 0.555093 F F F O
0.385909 0.600022 0.401063 F F F O
0.509236 0.503541 0.613867 F F F O
0.477808 0.509569 0.319090 F F F O
0.558904 0.357778 0.387676 F F F O
