Ti6 O11
1.0
18.000000 0.000000 0.000000
0.000000 18.000000 0.000000
0.000000 0.000000 18.000000
Ti O
6 11
direct
0.440147 0.501117 0.344196 Ti
0.434870 0.610272 0.447139 Ti
0.458965 0.448831 0.513621 Ti
0.512161 0.426982 0.658894 Ti
0.416764 0.575922 0.606667 Ti
0.560356 0.577211 0.534507 Ti
0.443899 0.503892 0.248824 O
0.476322 0.403533 0.413530 O
0.542042 0.353384 0.381057 O
0.475276 0.598906 0.351984 O
0.364505 0.555169 0.398780 O
0.510828 0.533701 0.455916 O
0.423626 0.393729 0.596261 O
0.611567 0.348485 0.526908 O
0.544232 0.396985 0.554009 O
0.605583 0.431168 0.660167 O
0.496467 0.522627 0.597511 O
