Ti7 O11
1.0
18.000000 0.000000 0.000000
0.000000 18.000000 0.000000
0.000000 0.000000 18.000000
Ti O
7 11
direct
0.403311 0.447219 0.430897 Ti
0.546536 0.371448 0.353687 Ti
0.552729 0.454861 0.487715 Ti
0.504983 0.518659 0.340247 Ti
0.429147 0.457058 0.603161 Ti
0.578756 0.524588 0.632628 Ti
0.451935 0.589561 0.694617 Ti
0.453497 0.425653 0.337386 O
0.558206 0.351806 0.451420 O
0.588083 0.465109 0.375886 O
0.470076 0.526381 0.438601 O
0.468839 0.378345 0.641283 O
0.457468 0.403572 0.510107 O
0.609517 0.439758 0.575672 O
0.392407 0.564667 0.618539 O
0.501268 0.528265 0.562406 O
0.531581 0.623378 0.642072 O
0.496197 0.493014 0.690333 O
