Ti6 O10
1.0
18.000000 0.000000 0.000000
0.000000 18.000000 0.000000
0.000000 0.000000 18.000000
Ti O
6 10
direct
0.549416 0.475889 0.388083 Ti
0.449245 0.575739 0.495808 Ti
0.589622 0.619344 0.446053 Ti
0.491077 0.490325 0.630961 Ti
0.426961 0.415342 0.508627 Ti
0.568444 0.621300 0.603594 Ti
0.487895 0.439595 0.326312 O
0.611172 0.491098 0.317369 O
0.437580 0.488240 0.433166 O
0.514029 0.582044 0.392244 O
0.515013 0.416137 0.557339 O
0.467256 0.599933 0.608844 O
0.401273 0.500577 0.563361 O
0.583617 0.539744 0.659811 O
0.553689 0.553098 0.518093 O
0.449929 0.453116 0.709283 O
