Ti7 O11
1.0
18.000000 0.000000 0.000000
0.000000 18.000000 0.000000
0.000000 0.000000 18.000000
Ti O
7 11
direct
0.524481 0.529270 0.368804 Ti
0.518354 0.391493 0.426677 Ti
0.411529 0.475011 0.601870 Ti
0.457261 0.422216 0.558039 Ti
0.574794 0.651828 0.437901 Ti
0.638979 0.455676 0.568099 Ti
0.310640 0.535929 0.475022 Ti
0.474514 0.535260 0.566457 O
0.544530 0.390265 0.438808 O
0.314518 0.466793 0.498241 O
0.379329 0.509607 0.560875 O
0.500263 0.609518 0.601600 O
0.601631 0.417655 0.589333 O
0.412139 0.433977 0.440042 O
0.553404 0.502932 0.330728 O
0.463635 0.505562 0.471955 O
0.566887 0.514278 0.466218 O
0.358580 0.406824 0.488710 O
