Ti7 O11
1.0
18.000000 0.000000 0.000000
0.000000 18.000000 0.000000
0.000000 0.000000 18.000000
Ti O
7 11
Selective dynamics
direct
0.341337 0.483421 0.465312 F F F Ti
0.477474 0.423610 0.443820 F F F Ti
0.648950 0.436264 0.435837 F F F Ti
0.541440 0.574263 0.429450 F F F Ti
0.580430 0.409333 0.592938 F F F Ti
0.463281 0.528123 0.554991 F F F Ti
0.630123 0.573409 0.559740 F F F Ti
0.380133 0.405040 0.464566 F F F O
0.591925 0.370133 0.485233 F F F O
0.550844 0.462993 0.382934 F F F O
0.435106 0.525864 0.454212 F F F O
0.656627 0.566068 0.451525 F F F O
0.484913 0.419137 0.564475 F F F O
0.550219 0.482623 0.499971 F F F O
0.671930 0.459952 0.555492 F F F O
0.359761 0.497905 0.576637 F F F O
0.555189 0.502694 0.621570 F F F O
0.533385 0.601303 0.525858 F F F O
