Ti7 O11
1.0
18.000000 0.000000 0.000000
0.000000 18.000000 0.000000
0.000000 0.000000 18.000000
Ti O
7 11
direct
0.340063 0.490983 0.467767 Ti
0.482560 0.413955 0.452590 Ti
0.646211 0.447766 0.440699 Ti
0.544507 0.572239 0.421136 Ti
0.584167 0.409163 0.586567 Ti
0.464298 0.525544 0.566967 Ti
0.627139 0.564322 0.560167 Ti
0.373363 0.396144 0.461027 O
0.584372 0.366446 0.484002 O
0.556028 0.469414 0.378808 O
0.444472 0.519474 0.456639 O
0.648356 0.560444 0.449219 O
0.474781 0.414466 0.563933 O
0.356468 0.499372 0.566806 O
0.558344 0.489308 0.504253 O
0.674161 0.462284 0.549111 O
0.561072 0.508818 0.629928 O
0.532697 0.611994 0.524947 O
