Ti7 O11
1.0
18.000000 0.000000 0.000000
0.000000 18.000000 0.000000
0.000000 0.000000 18.000000
Ti O
7 11
Selective dynamics
direct
0.423790 0.428090 0.387421 F F F Ti
0.566339 0.371004 0.413108 F F F Ti
0.581961 0.522960 0.367172 F F F Ti
0.532722 0.654156 0.451512 F F F Ti
0.465660 0.467091 0.556947 F F F Ti
0.616232 0.531441 0.533183 F F F Ti
0.559430 0.492882 0.663497 F F F Ti
0.490069 0.376570 0.470513 F F F O
0.529998 0.431865 0.337457 F F F O
0.646495 0.448594 0.436256 F F F O
0.420705 0.497247 0.443654 F F F O
0.470112 0.654271 0.390776 F F F O
0.536804 0.537861 0.466252 F F F O
0.415746 0.394489 0.570647 F F F O
0.481106 0.458843 0.665742 F F F O
0.588779 0.445753 0.595207 F F F O
0.406289 0.545681 0.582430 F F F O
0.534780 0.568041 0.602374 F F F O
