Ti6 O10
1.0
18.000000 0.000000 0.000000
0.000000 18.000000 0.000000
0.000000 0.000000 18.000000
Ti O
6 10
direct
0.482175 0.359663 0.454942 Ti
0.370935 0.564457 0.623245 Ti
0.512427 0.647128 0.571628 Ti
0.637199 0.509645 0.603120 Ti
0.557966 0.342529 0.514608 Ti
0.491665 0.655903 0.479467 Ti
0.385863 0.420093 0.434521 O
0.542502 0.369799 0.372787 O
0.467087 0.630455 0.470639 O
0.633190 0.598862 0.481786 O
0.406575 0.358530 0.471185 O
0.559987 0.484298 0.631852 O
0.414354 0.351191 0.566954 O
0.616743 0.500499 0.518877 O
0.422042 0.487482 0.547480 O
0.349683 0.474672 0.599803 O
