Ti6 O10
1.0
18.000000 0.000000 0.000000
0.000000 18.000000 0.000000
0.000000 0.000000 18.000000
Ti O
6 10
direct
0.463979 0.347349 0.422528 Ti
0.575356 0.630989 0.457051 Ti
0.583856 0.359720 0.520777 Ti
0.479761 0.612306 0.575311 Ti
0.596300 0.510190 0.570439 Ti
0.357144 0.577844 0.673683 Ti
0.386567 0.297289 0.446772 O
0.572122 0.319653 0.429327 O
0.429621 0.433277 0.400937 O
0.604950 0.452931 0.483888 O
0.479223 0.617356 0.471470 O
0.482969 0.374741 0.521847 O
0.375859 0.489237 0.662322 O
0.371814 0.602744 0.577011 O
0.495477 0.511147 0.573783 O
0.595394 0.618439 0.555744 O
