Ti7 O11
1.0
18.000000 0.000000 0.000000
0.000000 18.000000 0.000000
0.000000 0.000000 18.000000
Ti O
7 11
Selective dynamics
direct
0.583889 0.406371 0.589864 F F F Ti
0.342602 0.492843 0.477554 F F F Ti
0.475056 0.532719 0.581183 F F F Ti
0.477661 0.417121 0.448898 F F F Ti
0.616672 0.553837 0.590156 F F F Ti
0.657844 0.553619 0.550504 F F F Ti
0.636981 0.451801 0.432740 F F F Ti
0.559972 0.493254 0.502689 F F F O
0.483481 0.441395 0.621667 F F F O
0.348462 0.574512 0.457339 F F F O
0.538001 0.499795 0.388684 F F F O
0.569823 0.503584 0.631519 F F F O
0.638647 0.557990 0.427251 F F F O
0.549432 0.610858 0.545322 F F F O
0.335697 0.491705 0.570464 F F F O
0.667425 0.456715 0.545792 F F F O
0.477792 0.414698 0.561206 F F F O
0.547663 0.373521 0.373132 F F F O
