Ti7 O11
1.0
18.000000 0.000000 0.000000
0.000000 18.000000 0.000000
0.000000 0.000000 18.000000
Ti O
7 11
direct
0.333598 0.492437 0.474863 Ti
0.478441 0.427361 0.430699 Ti
0.628844 0.447799 0.417891 Ti
0.583950 0.419773 0.579956 Ti
0.459504 0.508194 0.579956 Ti
0.601278 0.594717 0.634011 Ti
0.678283 0.550379 0.516639 Ti
0.541122 0.495538 0.381862 O
0.555661 0.369327 0.405981 O
0.347440 0.580067 0.453970 O
0.648811 0.554251 0.422890 O
0.460349 0.441846 0.651144 O
0.479962 0.398686 0.533093 O
0.561556 0.493520 0.507388 O
0.574011 0.498322 0.652506 O
0.678589 0.445342 0.520094 O
0.352151 0.501928 0.573767 O
0.543550 0.606856 0.559256 O
