Ti6 O11
1.0
18.000000 0.000000 0.000000
0.000000 18.000000 0.000000
0.000000 0.000000 18.000000
Ti O
6 11
direct
0.503242 0.444037 0.328268 Ti
0.544698 0.372437 0.464708 Ti
0.473509 0.509903 0.461320 Ti
0.621678 0.504122 0.416721 Ti
0.589756 0.651700 0.497454 Ti
0.433884 0.385061 0.594622 Ti
0.458533 0.413688 0.415901 O
0.528639 0.533617 0.372197 O
0.667500 0.591211 0.448540 O
0.516321 0.687528 0.447573 O
0.509419 0.320791 0.547083 O
0.458043 0.466585 0.638683 O
0.351666 0.405873 0.550226 O
0.565033 0.470705 0.500573 O
0.550794 0.625283 0.580850 O
0.630906 0.732972 0.524702 O
0.399401 0.336938 0.669028 O
