Ti7 O10
1.0
18.000000 0.000000 0.000000
0.000000 18.000000 0.000000
0.000000 0.000000 18.000000
Ti O
7 10
direct
0.489631 0.417060 0.385845 Ti
0.524480 0.587331 0.392240 Ti
0.380692 0.532068 0.451328 Ti
0.523491 0.469074 0.634468 Ti
0.421149 0.377648 0.556490 Ti
0.544871 0.622352 0.613428 Ti
0.365992 0.502889 0.625907 Ti
0.555541 0.374724 0.454815 O
0.446353 0.519371 0.365342 O
0.569442 0.490640 0.404053 O
0.559955 0.580968 0.493898 O
0.397629 0.419575 0.445024 O
0.437142 0.625276 0.439645 O
0.575569 0.541805 0.549453 O
0.423759 0.419932 0.654560 O
0.498826 0.446621 0.537066 O
0.459463 0.550935 0.601179 O
