Ti7 O9
1.0
18.000000 0.000000 0.000000
0.000000 18.000000 0.000000
0.000000 0.000000 18.000000
Ti O
7 9
direct
0.483134 0.495497 0.476232 Ti
0.507781 0.373969 0.348603 Ti
0.670394 0.483875 0.410976 Ti
0.533608 0.530999 0.340407 Ti
0.601356 0.390308 0.508667 Ti
0.447253 0.507659 0.632406 Ti
0.632417 0.532154 0.557567 Ti
0.460220 0.325811 0.411478 O
0.454752 0.466418 0.364719 O
0.574344 0.440298 0.412111 O
0.515627 0.579861 0.425623 O
0.402293 0.425661 0.625172 O
0.551158 0.469712 0.561244 O
0.686194 0.457069 0.509787 O
0.413792 0.543356 0.540267 O
0.378537 0.551888 0.681917 O
