Ti7 O11
1.0
18.000000 0.000000 0.000000
0.000000 18.000000 0.000000
0.000000 0.000000 18.000000
Ti O
7 11
Selective dynamics
direct
0.340486 0.499893 0.469874 F F F Ti
0.486284 0.405000 0.458340 F F F Ti
0.655649 0.452802 0.437461 F F F Ti
0.546623 0.574797 0.438688 F F F Ti
0.586868 0.391202 0.587283 F F F Ti
0.455501 0.533035 0.565347 F F F Ti
0.622098 0.559139 0.598274 F F F Ti
0.382980 0.397984 0.470026 F F F O
0.626556 0.433657 0.351287 F F F O
0.584932 0.382739 0.476821 F F F O
0.432938 0.518029 0.455327 F F F O
0.630002 0.565147 0.402180 F F F O
0.472172 0.420736 0.568649 F F F O
0.539673 0.497025 0.635418 F F F O
0.560335 0.497580 0.512917 F F F O
0.667327 0.459702 0.569098 F F F O
0.346224 0.504460 0.577691 F F F O
0.541111 0.612906 0.535767 F F F O
