Ti7 O11
1.0
18.000000 0.000000 0.000000
0.000000 18.000000 0.000000
0.000000 0.000000 18.000000
Ti O
7 11
direct
0.383964 0.470709 0.477403 Ti
0.690078 0.422826 0.469799 Ti
0.423781 0.435030 0.632467 Ti
0.621933 0.404458 0.628344 Ti
0.545974 0.468699 0.513824 Ti
0.536345 0.536035 0.665478 Ti
0.662683 0.565833 0.580194 Ti
0.289189 0.491979 0.471203 O
0.357332 0.375597 0.472358 O
0.380992 0.476271 0.380507 O
0.598733 0.402978 0.446596 O
0.485666 0.512563 0.444115 O
0.462778 0.406146 0.537709 O
0.339182 0.452239 0.581861 O
0.671539 0.461853 0.568206 O
0.387841 0.564439 0.507866 O
0.438560 0.536058 0.644839 O
0.561933 0.567794 0.570878 O
