Ti7 O11
1.0
18.000000 0.000000 0.000000
0.000000 18.000000 0.000000
0.000000 0.000000 18.000000
Ti O
7 11
Selective dynamics
direct
0.433697 0.415287 0.391032 F F F Ti
0.573688 0.362207 0.410801 F F F Ti
0.576347 0.523411 0.377116 F F F Ti
0.519834 0.659402 0.448631 F F F Ti
0.463951 0.466897 0.539349 F F F Ti
0.613397 0.519282 0.526156 F F F Ti
0.568995 0.495862 0.665007 F F F Ti
0.487691 0.382865 0.472005 F F F O
0.536217 0.418048 0.344853 F F F O
0.638781 0.461524 0.446968 F F F O
0.423436 0.515451 0.458048 F F F O
0.465599 0.653620 0.394908 F F F O
0.539088 0.556269 0.475178 F F F O
0.477673 0.473212 0.661772 F F F O
0.407066 0.410735 0.574403 F F F O
0.594285 0.436146 0.584500 F F F O
0.411304 0.531588 0.584070 F F F O
0.541240 0.566786 0.606649 F F F O
