Ti7 O11
1.0
18.000000 0.000000 0.000000
0.000000 18.000000 0.000000
0.000000 0.000000 18.000000
Ti O
7 11
direct
0.508849 0.453564 0.328925 Ti
0.590375 0.358895 0.543785 Ti
0.374130 0.573658 0.546581 Ti
0.509370 0.509742 0.553094 Ti
0.537284 0.515136 0.456377 Ti
0.434597 0.545409 0.632860 Ti
0.624612 0.588258 0.403973 Ti
0.458466 0.431749 0.491638 O
0.420634 0.413581 0.628185 O
0.570336 0.613072 0.450743 O
0.517950 0.433228 0.627882 O
0.523871 0.428382 0.545727 O
0.490226 0.475258 0.393566 O
0.525785 0.551654 0.349267 O
0.529338 0.383460 0.429006 O
0.314387 0.527071 0.528066 O
0.450493 0.643878 0.581734 O
0.456018 0.548948 0.537679 O
