Ti7 O11
1.0
18.000000 0.000000 0.000000
0.000000 18.000000 0.000000
0.000000 0.000000 18.000000
Ti O
7 11
direct
0.547689 0.443987 0.298407 Ti
0.476262 0.490727 0.426968 Ti
0.563989 0.381772 0.499403 Ti
0.627706 0.523236 0.427418 Ti
0.382724 0.609356 0.543428 Ti
0.531386 0.552127 0.574822 Ti
0.427713 0.507364 0.681967 Ti
0.455399 0.437792 0.333234 O
0.467943 0.403828 0.487996 O
0.580600 0.429859 0.403594 O
0.542733 0.574228 0.463234 O
0.551589 0.537409 0.341510 O
0.377157 0.448172 0.629872 O
0.519326 0.477519 0.648694 O
0.601161 0.478532 0.524508 O
0.300318 0.578006 0.571906 O
0.445469 0.604767 0.631844 O
0.437553 0.516267 0.540284 O
