Ti6 O9
1.0
18.000000 0.000000 0.000000
0.000000 18.000000 0.000000
0.000000 0.000000 18.000000
Ti O
6 9
Selective dynamics
direct
0.554659 0.514100 0.477980 F F F Ti
0.433731 0.528939 0.483188 F F F Ti
0.571512 0.405733 0.497091 F F F Ti
0.497969 0.573232 0.484971 F F F Ti
0.461528 0.438133 0.405904 F F F Ti
0.517427 0.337720 0.535212 F F F Ti
0.469729 0.635535 0.594096 F F F O
0.404391 0.576874 0.437231 F F F O
0.502560 0.422878 0.555083 F F F O
0.403425 0.479571 0.581598 F F F O
0.596575 0.499984 0.553180 F F F O
0.432352 0.644372 0.503805 F F F O
0.512532 0.519847 0.571247 F F F O
0.493383 0.652048 0.434808 F F F O
0.527087 0.662280 0.509234 F F F O
