Ti6 O9
1.0
18.000000 0.000000 0.000000
0.000000 18.000000 0.000000
0.000000 0.000000 18.000000
Ti O
6 9
direct
0.477507 0.386771 0.417917 Ti
0.553228 0.526177 0.446299 Ti
0.467764 0.339062 0.562939 Ti
0.608461 0.391623 0.516669 Ti
0.408884 0.506534 0.510364 Ti
0.476692 0.655778 0.532392 Ti
0.464991 0.485122 0.400774 O
0.638817 0.462562 0.456656 O
0.383098 0.604928 0.498744 O
0.509766 0.703917 0.457239 O
0.383528 0.497166 0.601883 O
0.503351 0.415639 0.515177 O
0.506171 0.541092 0.538921 O
0.558539 0.648789 0.583456 O
0.438059 0.726083 0.585194 O
