Ti6 O10
1.0
18.000000 0.000000 0.000000
0.000000 18.000000 0.000000
0.000000 0.000000 18.000000
Ti O
6 10
direct
0.481697 0.442703 0.463997 Ti
0.627956 0.431646 0.405583 Ti
0.361617 0.546836 0.440135 Ti
0.572983 0.577794 0.405924 Ti
0.382490 0.481751 0.592122 Ti
0.504729 0.576239 0.557550 Ti
0.365951 0.457659 0.486128 O
0.540861 0.473531 0.371416 O
0.568883 0.378905 0.473624 O
0.465053 0.552929 0.445776 O
0.574339 0.505167 0.491102 O
0.666289 0.531169 0.407164 O
0.571683 0.635189 0.493114 O
0.483088 0.465937 0.571661 O
0.410057 0.577706 0.612189 O
0.568939 0.565589 0.627278 O
