Ti6 O10
1.0
18.000000 0.000000 0.000000
0.000000 18.000000 0.000000
0.000000 0.000000 18.000000
Ti O
6 10
Selective dynamics
direct
0.456679 0.437871 0.447955 F F F Ti
0.348268 0.551825 0.420207 F F F Ti
0.634071 0.434757 0.456348 F F F Ti
0.565721 0.583599 0.424103 F F F Ti
0.415875 0.457797 0.615856 F F F Ti
0.512794 0.576403 0.622245 F F F Ti
0.349274 0.453154 0.443305 F F F O
0.580676 0.466011 0.340835 F F F O
0.543485 0.373770 0.493112 F F F O
0.456956 0.544597 0.425867 F F F O
0.651732 0.526396 0.407243 F F F O
0.551136 0.500793 0.499139 F F F O
0.610366 0.578998 0.567876 F F F O
0.492032 0.506415 0.554694 F F F O
0.402306 0.566744 0.627952 F F F O
0.575244 0.641617 0.498029 F F F O
