Ti7 O11
1.0
18.000000 0.000000 0.000000
0.000000 18.000000 0.000000
0.000000 0.000000 18.000000
Ti O
7 11
Selective dynamics
direct
0.584350 0.505129 0.364129 F F F Ti
0.591750 0.363159 0.424922 F F F Ti
0.545453 0.529355 0.482231 F F F Ti
0.466199 0.480268 0.543157 F F F Ti
0.623739 0.505342 0.521414 F F F Ti
0.346889 0.517618 0.422522 F F F Ti
0.542153 0.641211 0.485861 F F F Ti
0.650733 0.451750 0.426805 F F F O
0.499045 0.377919 0.478663 F F F O
0.501344 0.367372 0.405309 F F F O
0.611117 0.601172 0.554351 F F F O
0.512424 0.424321 0.553568 F F F O
0.643844 0.478786 0.568522 F F F O
0.410379 0.409084 0.577250 F F F O
0.547956 0.571883 0.578028 F F F O
0.571133 0.442824 0.587339 F F F O
0.451207 0.653789 0.486753 F F F O
0.401991 0.550682 0.561533 F F F O
