Ti6 O9
1.0
18.000000 0.000000 0.000000
0.000000 18.000000 0.000000
0.000000 0.000000 18.000000
Ti O
6 9
Selective dynamics
direct
0.332289 0.525393 0.481609 F F F Ti
0.501493 0.402164 0.419919 F F F Ti
0.475411 0.567269 0.442352 F F F Ti
0.564814 0.400408 0.511490 F F F Ti
0.380660 0.514758 0.608345 F F F Ti
0.545726 0.546922 0.619490 F F F Ti
0.385419 0.606195 0.483268 F F F O
0.420229 0.468793 0.475629 F F F O
0.451776 0.324919 0.440700 F F F O
0.506047 0.655931 0.499680 F F F O
0.460929 0.418083 0.337179 F F F O
0.417724 0.423366 0.578219 F F F O
0.456725 0.522974 0.678062 F F F O
0.452587 0.571620 0.555236 F F F O
0.549906 0.450220 0.596317 F F F O
