Ti6 O9
1.0
18.000000 0.000000 0.000000
0.000000 18.000000 0.000000
0.000000 0.000000 18.000000
Ti O
6 9
direct
0.466137 0.397808 0.415179 Ti
0.334625 0.525623 0.446595 Ti
0.476437 0.570639 0.464260 Ti
0.381908 0.487292 0.603317 Ti
0.648350 0.465433 0.555386 Ti
0.533283 0.551476 0.610856 Ti
0.426386 0.415807 0.332534 O
0.412628 0.324096 0.435705 O
0.418634 0.478304 0.486101 O
0.382841 0.611583 0.442107 O
0.425203 0.404952 0.593450 O
0.559772 0.454729 0.577917 O
0.434289 0.578183 0.563600 O
0.550163 0.616189 0.526126 O
0.451079 0.516907 0.674361 O
