Ti6 O10
1.0
18.000000 0.000000 0.000000
0.000000 18.000000 0.000000
0.000000 0.000000 18.000000
Ti O
6 10
direct
0.395501 0.476821 0.469621 Ti
0.441952 0.628050 0.419364 Ti
0.548392 0.508247 0.441867 Ti
0.490792 0.367402 0.532234 Ti
0.590078 0.484514 0.591661 Ti
0.469424 0.591506 0.571078 Ti
0.475496 0.417089 0.431148 O
0.448707 0.533436 0.386064 O
0.521517 0.614067 0.481049 O
0.516525 0.275013 0.523038 O
0.385785 0.383402 0.515653 O
0.485732 0.492984 0.533167 O
0.582800 0.416665 0.500439 O
0.518646 0.410381 0.624894 O
0.552615 0.576756 0.628350 O
0.630167 0.534907 0.506846 O
