Ti7 O11
1.0
18.000000 0.000000 0.000000
0.000000 18.000000 0.000000
0.000000 0.000000 18.000000
Ti O
7 11
direct
0.525379 0.362651 0.473653 Ti
0.403109 0.623133 0.394232 Ti
0.531998 0.524231 0.385641 Ti
0.500701 0.428256 0.626000 Ti
0.608744 0.487434 0.515075 Ti
0.427908 0.533682 0.529448 Ti
0.453621 0.691650 0.531564 Ti
0.621867 0.385311 0.496447 O
0.506559 0.467882 0.474933 O
0.487489 0.605078 0.444543 O
0.366462 0.624900 0.487128 O
0.623333 0.539162 0.424405 O
0.489924 0.341261 0.566972 O
0.408717 0.462693 0.612728 O
0.339566 0.497309 0.511003 O
0.430422 0.618128 0.597461 O
0.532385 0.521562 0.587828 O
0.545753 0.673583 0.535085 O
