Ti6 O11
1.0
18.000000 0.000000 0.000000
0.000000 18.000000 0.000000
0.000000 0.000000 18.000000
Ti O
6 11
direct
0.442888 0.463881 0.391210 Ti
0.596744 0.473646 0.449527 Ti
0.413453 0.632400 0.394236 Ti
0.461992 0.399916 0.559372 Ti
0.455527 0.579578 0.532336 Ti
0.521334 0.685544 0.618994 Ti
0.453855 0.371049 0.378891 O
0.482591 0.468866 0.496636 O
0.535712 0.476932 0.353732 O
0.598983 0.375313 0.440497 O
0.683100 0.465406 0.406819 O
0.492096 0.573789 0.424521 O
0.378147 0.633061 0.485669 O
0.618522 0.569872 0.442011 O
0.628489 0.473997 0.540562 O
0.447143 0.624656 0.633050 O
0.536268 0.646567 0.529344 O
