Ti6 O10
1.0
18.000000 0.000000 0.000000
0.000000 18.000000 0.000000
0.000000 0.000000 18.000000
Ti O
6 10
direct
0.462817 0.429401 0.352961 Ti
0.498547 0.433204 0.498404 Ti
0.451444 0.589267 0.424019 Ti
0.599833 0.530137 0.389721 Ti
0.539961 0.413734 0.646728 Ti
0.569700 0.566461 0.578750 Ti
0.416733 0.477643 0.436042 O
0.454882 0.356116 0.433814 O
0.557906 0.422009 0.398287 O
0.503275 0.539053 0.344424 O
0.625389 0.620556 0.376672 O
0.534758 0.541741 0.476268 O
0.490266 0.674744 0.412958 O
0.456174 0.414661 0.596789 O
0.587900 0.455563 0.567678 O
0.482718 0.581728 0.604489 O
