Ti7 O11
1.0
18.000000 0.000000 0.000000
0.000000 18.000000 0.000000
0.000000 0.000000 18.000000
Ti O
7 11
Selective dynamics
direct
0.478213 0.421532 0.461585 F F F Ti
0.331756 0.488699 0.469625 F F F Ti
0.656184 0.460615 0.445253 F F F Ti
0.535073 0.586800 0.432745 F F F Ti
0.593302 0.396614 0.587619 F F F Ti
0.460820 0.528846 0.576025 F F F Ti
0.622591 0.564917 0.592907 F F F Ti
0.367187 0.392996 0.459412 F F F O
0.632367 0.430047 0.353172 F F F O
0.596843 0.383785 0.472173 F F F O
0.444925 0.505310 0.450643 F F F O
0.628834 0.574801 0.400062 F F F O
0.484223 0.408627 0.552966 F F F O
0.551694 0.505050 0.638324 F F F O
0.557477 0.490944 0.513019 F F F O
0.660763 0.463822 0.560779 F F F O
0.342682 0.501269 0.556910 F F F O
0.518857 0.611543 0.542775 F F F O
