Ti6 O9
1.0
18.000000 0.000000 0.000000
0.000000 18.000000 0.000000
0.000000 0.000000 18.000000
Ti O
6 9
direct
0.547929 0.492401 0.387133 Ti
0.680028 0.442472 0.451827 Ti
0.540414 0.438044 0.563400 Ti
0.455029 0.557189 0.505236 Ti
0.617283 0.579222 0.511286 Ti
0.450257 0.430578 0.683444 Ti
0.483283 0.462721 0.466209 O
0.603500 0.403084 0.397906 O
0.645833 0.533564 0.414739 O
0.534711 0.590583 0.441568 O
0.490778 0.359089 0.625383 O
0.432366 0.464506 0.583128 O
0.643639 0.480076 0.544753 O
0.532663 0.551039 0.573467 O
0.540998 0.467798 0.669822 O
