Ti7 O11
1.0
18.000000 0.000000 0.000000
0.000000 18.000000 0.000000
0.000000 0.000000 18.000000
Ti O
7 11
direct
0.381904 0.406792 0.614555 Ti
0.636943 0.498902 0.520864 Ti
0.505026 0.560020 0.445351 Ti
0.473454 0.541696 0.615011 Ti
0.498190 0.555066 0.520542 Ti
0.341209 0.494627 0.606580 Ti
0.637927 0.441255 0.450186 Ti
0.543232 0.545968 0.392937 O
0.421418 0.521098 0.594302 O
0.394467 0.370054 0.494978 O
0.395829 0.433294 0.533984 O
0.418395 0.437355 0.419314 O
0.559740 0.432942 0.347076 O
0.606061 0.532316 0.578095 O
0.532233 0.476229 0.672953 O
0.592625 0.408170 0.525213 O
0.514775 0.690711 0.507982 O
0.410858 0.456248 0.665443 O
