Ti7 O10
1.0
18.000000 0.000000 0.000000
0.000000 18.000000 0.000000
0.000000 0.000000 18.000000
Ti O
7 10
Selective dynamics
direct
0.414691 0.449356 0.485944 F F F Ti
0.496342 0.346115 0.394701 F F F Ti
0.422505 0.612646 0.467399 F F F Ti
0.545720 0.497661 0.411332 F F F Ti
0.597917 0.433789 0.638327 F F F Ti
0.453183 0.423334 0.564762 F F F Ti
0.458716 0.596061 0.568580 F F F Ti
0.401781 0.382245 0.402032 F F F O
0.517200 0.411952 0.480274 F F F O
0.437328 0.518084 0.410116 F F F O
0.528952 0.420397 0.335205 F F F O
0.524844 0.611279 0.417554 F F F O
0.624676 0.526597 0.492624 F F F O
0.529601 0.362700 0.617639 F F F O
0.383747 0.515635 0.588784 F F F O
0.528090 0.502648 0.591215 F F F O
0.642710 0.429874 0.548180 F F F O
