Ti7 O11
1.0
18.000000 0.000000 0.000000
0.000000 18.000000 0.000000
0.000000 0.000000 18.000000
Ti O
7 11
direct
0.536486 0.337067 0.486790 Ti
0.438176 0.581528 0.386116 Ti
0.562222 0.509561 0.425941 Ti
0.415838 0.436074 0.512393 Ti
0.589022 0.481143 0.599372 Ti
0.518733 0.635217 0.521419 Ti
0.670806 0.597556 0.550489 Ti
0.339426 0.435871 0.455163 O
0.483605 0.498802 0.354293 O
0.463896 0.541813 0.482545 O
0.537442 0.616094 0.410003 O
0.613294 0.669594 0.497678 O
0.441153 0.329787 0.503095 O
0.375297 0.440147 0.598083 O
0.535113 0.438705 0.506232 O
0.575550 0.587928 0.599661 O
0.645061 0.503708 0.509146 O
0.679150 0.520209 0.631028 O
