Ti7 O9
1.0
18.000000 0.000000 0.000000
0.000000 18.000000 0.000000
0.000000 0.000000 18.000000
Ti O
7 9
direct
0.391264 0.481985 0.423092 Ti
0.539886 0.432363 0.394340 Ti
0.501209 0.579422 0.350179 Ti
0.460827 0.412817 0.547243 Ti
0.605361 0.445911 0.602339 Ti
0.520627 0.558617 0.506715 Ti
0.568206 0.594472 0.647378 Ti
0.446214 0.394855 0.440384 O
0.461670 0.486640 0.340554 O
0.572356 0.538594 0.408356 O
0.552632 0.452262 0.504265 O
0.544314 0.362876 0.595128 O
0.515438 0.499222 0.617083 O
0.423041 0.513464 0.520036 O
0.510837 0.639783 0.581839 O
0.618472 0.553849 0.565272 O
