Ti6 O11
1.0
18.000000 0.000000 0.000000
0.000000 18.000000 0.000000
0.000000 0.000000 18.000000
Ti O
6 11
Selective dynamics
direct
0.540923 0.583994 0.441216 F F F Ti
0.453258 0.522254 0.594542 F F F Ti
0.648053 0.465364 0.433355 F F F Ti
0.422564 0.654288 0.539045 F F F Ti
0.586722 0.399178 0.579550 F F F Ti
0.393818 0.593539 0.581115 F F F Ti
0.587072 0.371922 0.475451 F F F O
0.569233 0.499601 0.369969 F F F O
0.670294 0.463493 0.559083 F F F O
0.547995 0.495041 0.637764 F F F O
0.496752 0.571833 0.525748 F F F O
0.638006 0.562950 0.409568 F F F O
0.568567 0.472782 0.501790 F F F O
0.635122 0.600190 0.507456 F F F O
0.372796 0.393539 0.470047 F F F O
0.482701 0.589728 0.396296 F F F O
0.352448 0.502918 0.568617 F F F O
