Ti6 O11
1.0
18.000000 0.000000 0.000000
0.000000 18.000000 0.000000
0.000000 0.000000 18.000000
Ti O
6 11
direct
0.518517 0.424099 0.426857 Ti
0.407052 0.666317 0.449387 Ti
0.497677 0.322086 0.544877 Ti
0.403252 0.584267 0.639056 Ti
0.520034 0.569183 0.532898 Ti
0.630400 0.454931 0.526287 Ti
0.438353 0.375587 0.481339 O
0.573400 0.645544 0.375449 O
0.577422 0.354326 0.478685 O
0.622083 0.462007 0.426659 O
0.382597 0.587000 0.413331 O
0.510964 0.649861 0.439384 O
0.395949 0.493464 0.644106 O
0.495305 0.376053 0.621494 O
0.523136 0.458728 0.528280 O
0.505061 0.585956 0.634428 O
0.621944 0.559661 0.537449 O
