Al249 O141
1.0
8.428300 0.000000 0.000000
0.000000 14.598200 0.000000
0.000000 0.000000 49.476269
Al O
249 141
Selective dynamics
direct
0.833335 0.344210 0.528702 F F F Al
0.166667 0.344210 0.528702 F F F Al
0.666668 0.510876 0.528933 F F F Al
0.000000 0.510876 0.528933 F F F Al
0.500001 0.344210 0.528702 F F F Al
0.333334 0.510876 0.528933 F F F Al
0.833335 0.677543 0.529162 F F F Al
0.166667 0.677543 0.529162 F F F Al
0.666668 0.844209 0.529393 F F F Al
0.000000 0.844209 0.529393 F F F Al
0.500001 0.677543 0.529162 F F F Al
0.333334 0.844209 0.529393 F F F Al
0.666668 0.733823 0.482203 F F F Al
0.000000 0.733823 0.482203 F F F Al
0.666668 0.067157 0.481282 F F F Al
0.513594 0.333333 0.374131 F F F Al
0.346927 0.500000 0.337728 F F F Al
0.513594 0.666666 0.374131 F F F Al
0.346927 0.833333 0.337728 F F F Al
0.013594 0.833333 0.374131 F F F Al
0.013594 0.500000 0.374131 F F F Al
0.024598 0.394805 0.426207 F F F Al
0.070655 0.570104 0.428592 F F F Al
0.846927 0.666667 0.384059 F F F Al
0.226093 0.346678 0.422927 F F F Al
0.846927 0.666667 0.337728 F F F Al
0.013594 0.166667 0.374131 F F F Al
0.846927 0.333333 0.337728 F F F Al
0.513594 0.000000 0.374131 F F F Al
0.346927 0.166667 0.337728 F F F Al
0.846927 0.000000 0.337728 F F F Al
0.680261 0.166667 0.293634 F F F Al
0.513594 0.333333 0.327801 F F F Al
0.680261 0.833333 0.293634 F F F Al
0.680261 0.500000 0.293634 F F F Al
0.513594 0.666666 0.327801 F F F Al
0.180260 0.333333 0.293634 F F F Al
0.013594 0.166667 0.327801 F F F Al
0.180260 0.000000 0.293634 F F F Al
0.013594 0.833333 0.327801 F F F Al
0.180260 0.666666 0.293634 F F F Al
0.013594 0.500000 0.327801 F F F Al
0.513594 0.000000 0.327801 F F F Al
0.346927 0.833333 0.205443 F F F Al
0.346927 0.500000 0.205443 F F F Al
0.180261 0.666666 0.239610 F F F Al
0.846927 0.333333 0.205443 F F F Al
0.680261 0.166667 0.239610 F F F Al
0.846927 0.000000 0.205443 F F F Al
0.680261 0.833333 0.239610 F F F Al
0.846927 0.666667 0.205443 F F F Al
0.680261 0.500000 0.239610 F F F Al
0.346927 0.166667 0.205443 F F F Al
0.180261 0.000000 0.239610 F F F Al
0.180261 0.333333 0.239610 F F F Al
0.513594 0.000000 0.249538 F F F Al
0.346927 0.166667 0.283706 F F F Al
0.846927 0.000000 0.283706 F F F Al
0.013594 0.500000 0.249538 F F F Al
0.013594 0.166667 0.249538 F F F Al
0.846927 0.333333 0.283706 F F F Al
0.513594 0.333333 0.249538 F F F Al
0.346927 0.500000 0.283706 F F F Al
0.013594 0.833333 0.249538 F F F Al
0.513594 0.666666 0.249538 F F F Al
0.846927 0.666667 0.283706 F F F Al
0.346927 0.833333 0.283706 F F F Al
0.346927 0.833333 0.073157 F F F Al
0.846927 0.333333 0.073157 F F F Al
0.680261 0.500000 0.107325 F F F Al
0.846927 0.666667 0.073157 F F F Al
0.680261 0.833333 0.107325 F F F Al
0.846927 0.000000 0.073157 F F F Al
0.680261 0.166667 0.107325 F F F Al
0.346927 0.500000 0.073157 F F F Al
0.180261 0.666666 0.107325 F F F Al
0.346927 0.166667 0.073157 F F F Al
0.180261 0.333333 0.107325 F F F Al
0.180261 0.000000 0.107325 F F F Al
0.013594 0.500000 0.117253 F F F Al
0.513594 0.666666 0.117253 F F F Al
0.346927 0.500000 0.151420 F F F Al
0.013594 0.833333 0.117253 F F F Al
0.846927 0.666667 0.151420 F F F Al
0.513594 0.000000 0.117253 F F F Al
0.346927 0.833333 0.151420 F F F Al
0.013594 0.166667 0.117253 F F F Al
0.846927 0.000000 0.151420 F F F Al
0.513594 0.333333 0.117253 F F F Al
0.346927 0.166667 0.151420 F F F Al
0.846927 0.333333 0.151420 F F F Al
0.680261 0.833333 0.161347 F F F Al
0.013594 0.833333 0.195515 F F F Al
0.513594 0.666666 0.195515 F F F Al
0.680261 0.500000 0.161347 F F F Al
0.180261 0.666666 0.161347 F F F Al
0.013594 0.500000 0.195515 F F F Al
0.513594 0.333333 0.195515 F F F Al
0.680261 0.166667 0.161347 F F F Al
0.180261 0.333333 0.161347 F F F Al
0.013594 0.166667 0.195515 F F F Al
0.180261 0.000000 0.161347 F F F Al
0.513594 0.000000 0.195515 F F F Al
0.513594 0.666666 0.063229 F F F Al
0.513594 0.333333 0.063229 F F F Al
0.013594 0.833333 0.063229 F F F Al
0.013594 0.166667 0.063229 F F F Al
0.013594 0.500000 0.063229 F F F Al
0.513594 0.000000 0.063229 F F F Al
0.749166 0.767884 0.420709 F F F Al
0.346927 0.833333 0.384059 F F F Al
0.846927 0.333333 0.384059 F F F Al
0.346927 0.166667 0.384059 F F F Al
0.346927 0.500000 0.384059 F F F Al
0.846927 0.000000 0.384059 F F F Al
0.410435 0.806620 0.431905 F F F Al
0.000000 0.400490 0.481742 F F F Al
0.166667 0.567157 0.481973 F F F Al
0.333334 0.733823 0.482203 F F F Al
0.833335 0.567157 0.481973 F F F Al
0.000000 0.067157 0.481282 F F F Al
0.666668 0.400490 0.481742 F F F Al
0.833335 0.233824 0.481513 F F F Al
0.166667 0.233824 0.481513 F F F Al
0.500001 0.567157 0.481973 F F F Al
0.500001 0.233824 0.481513 F F F Al
0.333334 0.400490 0.481742 F F F Al
0.333334 0.067157 0.481282 F F F Al
0.500001 0.010877 0.528241 F F F Al
0.500001 0.900490 0.482433 F F F Al
0.833335 0.010877 0.528241 F F F Al
0.833335 0.900490 0.482433 F F F Al
0.166667 0.010877 0.528241 F F F Al
0.166667 0.900490 0.482433 F F F Al
0.666668 0.177543 0.528472 F F F Al
0.000000 0.177543 0.528472 F F F Al
0.333334 0.177543 0.528472 F F F Al
0.666668 0.398315 0.622852 F F F Al
0.000000 0.398315 0.622852 F F F Al
0.833335 0.564981 0.623081 F F F Al
0.166667 0.564981 0.623081 F F F Al
0.500001 0.564981 0.623081 F F F Al
0.333334 0.398315 0.622852 F F F Al
0.833335 0.121262 0.575432 F F F Al
0.166667 0.121262 0.575432 F F F Al
0.500001 0.121262 0.575432 F F F Al
0.833335 0.454595 0.575892 F F F Al
0.166667 0.454595 0.575892 F F F Al
0.666668 0.287929 0.575661 F F F Al
0.000000 0.287929 0.575661 F F F Al
0.500001 0.454595 0.575892 F F F Al
0.333334 0.287929 0.575661 F F F Al
0.666668 0.621262 0.576122 F F F Al
0.000000 0.621262 0.576122 F F F Al
0.833335 0.787928 0.576353 F F F Al
0.166667 0.787928 0.576353 F F F Al
0.500001 0.787928 0.576353 F F F Al
0.333334 0.621262 0.576122 F F F Al
0.333334 0.064982 0.622391 F F F Al
0.333334 0.954595 0.576582 F F F Al
0.000000 0.064982 0.622391 F F F Al
0.000000 0.954595 0.576582 F F F Al
0.666668 0.064982 0.622391 F F F Al
0.666668 0.954595 0.576582 F F F Al
0.833335 0.231648 0.622621 F F F Al
0.166667 0.231648 0.622621 F F F Al
0.500001 0.231648 0.622621 F F F Al
0.666668 0.508701 0.670042 F F F Al
0.000000 0.508701 0.670042 F F F Al
0.833335 0.675367 0.670272 F F F Al
0.166667 0.675367 0.670272 F F F Al
0.500001 0.675367 0.670272 F F F Al
0.333334 0.508701 0.670042 F F F Al
0.666668 0.842034 0.670502 F F F Al
0.000000 0.842034 0.670502 F F F Al
0.333334 0.842034 0.670502 F F F Al
0.500001 0.008701 0.669351 F F F Al
0.500001 0.898314 0.623542 F F F Al
0.666668 0.731648 0.623312 F F F Al
0.000000 0.731648 0.623312 F F F Al
0.833335 0.008701 0.669351 F F F Al
0.833335 0.898314 0.623542 F F F Al
0.166667 0.008701 0.669351 F F F Al
0.166667 0.898314 0.623542 F F F Al
0.333334 0.731648 0.623312 F F F Al
0.666668 0.175368 0.669581 F F F Al
0.000000 0.175368 0.669581 F F F Al
0.833335 0.342034 0.669811 F F F Al
0.166667 0.342034 0.669811 F F F Al
0.500001 0.342034 0.669811 F F F Al
0.333334 0.175368 0.669581 F F F Al
0.666668 0.839859 0.811612 F F F Al
0.000000 0.839859 0.811612 F F F Al
0.333334 0.839859 0.811612 F F F Al
0.833335 0.673192 0.811381 F F F Al
0.166667 0.673192 0.811381 F F F Al
0.500001 0.673192 0.811381 F F F Al
0.666668 0.396140 0.763961 F F F Al
0.000000 0.396140 0.763961 F F F Al
0.833335 0.562806 0.764191 F F F Al
0.166667 0.562806 0.764191 F F F Al
0.500001 0.562806 0.764191 F F F Al
0.333334 0.396140 0.763961 F F F Al
0.500001 0.006526 0.810460 F F F Al
0.500001 0.896139 0.764651 F F F Al
0.666668 0.173192 0.810691 F F F Al
0.000000 0.173192 0.810691 F F F Al
0.666668 0.729473 0.764421 F F F Al
0.000000 0.729473 0.764421 F F F Al
0.833335 0.006526 0.810460 F F F Al
0.833335 0.896139 0.764651 F F F Al
0.166667 0.006526 0.810460 F F F Al
0.166667 0.896139 0.764651 F F F Al
0.333334 0.173192 0.810691 F F F Al
0.333334 0.729473 0.764421 F F F Al
0.833335 0.339859 0.810920 F F F Al
0.166667 0.339859 0.810920 F F F Al
0.666668 0.506525 0.811151 F F F Al
0.000000 0.506525 0.811151 F F F Al
0.500001 0.339859 0.810920 F F F Al
0.333334 0.506525 0.811151 F F F Al
0.666668 0.619087 0.717231 F F F Al
0.000000 0.619087 0.717231 F F F Al
0.833335 0.785753 0.717462 F F F Al
0.166667 0.785753 0.717462 F F F Al
0.500001 0.785753 0.717462 F F F Al
0.333334 0.619087 0.717231 F F F Al
0.333334 0.062807 0.763500 F F F Al
0.333334 0.952420 0.717692 F F F Al
0.000000 0.062807 0.763500 F F F Al
0.000000 0.952420 0.717692 F F F Al
0.666668 0.062807 0.763500 F F F Al
0.666668 0.952420 0.717692 F F F Al
0.833335 0.229473 0.763730 F F F Al
0.166667 0.229473 0.763730 F F F Al
0.500001 0.229473 0.763730 F F F Al
0.833335 0.119087 0.716541 F F F Al
0.166667 0.119087 0.716541 F F F Al
0.500001 0.119087 0.716541 F F F Al
0.833335 0.452420 0.717001 F F F Al
0.166667 0.452420 0.717001 F F F Al
0.666668 0.285754 0.716771 F F F Al
0.000000 0.285754 0.716771 F F F Al
0.500001 0.452420 0.717001 F F F Al
0.333334 0.285754 0.716771 F F F Al
0.055206 0.824682 0.434166 F F F Al
0.662352 0.151093 0.426880 F F F Al
0.843051 0.438348 0.429262 F F F Al
0.565725 0.115089 0.413698 F F F Al
0.662275 0.043660 0.429831 F F F O
0.513594 0.231285 0.354812 F F F O
0.360521 0.384358 0.354812 F F F O
0.666667 0.384358 0.354812 F F F O
0.500031 0.680477 0.404743 F F F O
0.513594 0.564618 0.354812 F F F O
0.360521 0.717691 0.354812 F F F O
0.666667 0.717691 0.354812 F F F O
0.630398 0.577919 0.403877 F F F O
0.166667 0.884357 0.354812 F F F O
0.860521 0.884357 0.354812 F F F O
0.013594 0.731284 0.354812 F F F O
0.047626 0.480988 0.405740 F F F O
0.016727 0.654458 0.406837 F F F O
0.140047 0.738309 0.402637 F F F O
0.838466 0.634779 0.420548 F F F O
0.013594 0.397951 0.354812 F F F O
0.166667 0.551025 0.354812 F F F O
0.860521 0.551025 0.354812 F F F O
0.166667 0.217691 0.354812 F F F O
0.860521 0.217691 0.354812 F F F O
0.013594 0.064618 0.354812 F F F O
0.513594 0.897951 0.354812 F F F O
0.360521 0.051025 0.354812 F F F O
0.666667 0.051025 0.354812 F F F O
0.693854 0.282309 0.310717 F F F O
0.846927 0.102049 0.310717 F F F O
0.500000 0.115643 0.310717 F F F O
0.693854 0.948975 0.310717 F F F O
0.846927 0.768715 0.310717 F F F O
0.500000 0.782309 0.310717 F F F O
0.693854 0.615642 0.310717 F F F O
0.846927 0.435382 0.310717 F F F O
0.500000 0.448976 0.310717 F F F O
0.000000 0.282309 0.310717 F F F O
0.346927 0.268715 0.310717 F F F O
0.193854 0.448976 0.310717 F F F O
0.193854 0.115642 0.310717 F F F O
0.000000 0.948975 0.310717 F F F O
0.346927 0.935381 0.310717 F F F O
0.000000 0.615642 0.310717 F F F O
0.346927 0.602048 0.310717 F F F O
0.193854 0.782309 0.310717 F F F O
0.360521 0.948975 0.222526 F F F O
0.166667 0.782309 0.222526 F F F O
0.513594 0.768715 0.222526 F F F O
0.360521 0.615642 0.222526 F F F O
0.166667 0.448976 0.222526 F F F O
0.513594 0.435382 0.222526 F F F O
0.666667 0.282309 0.222526 F F F O
0.013594 0.268715 0.222526 F F F O
0.860521 0.448976 0.222526 F F F O
0.013594 0.935382 0.222526 F F F O
0.666667 0.948975 0.222526 F F F O
0.860521 0.115643 0.222526 F F F O
0.860521 0.782309 0.222526 F F F O
0.666667 0.615642 0.222526 F F F O
0.013594 0.602048 0.222526 F F F O
0.360521 0.282309 0.222526 F F F O
0.513594 0.102049 0.222526 F F F O
0.166667 0.115642 0.222526 F F F O
0.680261 0.064618 0.266621 F F F O
0.333334 0.051025 0.266621 F F F O
0.527187 0.884357 0.266621 F F F O
0.027187 0.384358 0.266621 F F F O
0.833334 0.551024 0.266621 F F F O
0.180261 0.564618 0.266621 F F F O
0.027187 0.051025 0.266621 F F F O
0.833334 0.217691 0.266621 F F F O
0.180261 0.231285 0.266621 F F F O
0.527187 0.217691 0.266621 F F F O
0.680261 0.397951 0.266621 F F F O
0.333334 0.384358 0.266621 F F F O
0.027187 0.717691 0.266621 F F F O
0.833334 0.884357 0.266621 F F F O
0.180261 0.897951 0.266621 F F F O
0.527187 0.551024 0.266621 F F F O
0.680261 0.731284 0.266621 F F F O
0.333334 0.717691 0.266621 F F F O
0.360521 0.717691 0.090240 F F F O
0.166667 0.884357 0.090240 F F F O
0.513594 0.897951 0.090240 F F F O
0.860521 0.217691 0.090240 F F F O
0.013594 0.397951 0.090240 F F F O
0.666667 0.384358 0.090240 F F F O
0.013594 0.731284 0.090240 F F F O
0.666667 0.717691 0.090240 F F F O
0.860521 0.551024 0.090240 F F F O
0.013594 0.064618 0.090240 F F F O
0.666667 0.051025 0.090240 F F F O
0.860521 0.884357 0.090240 F F F O
0.166667 0.551024 0.090240 F F F O
0.513594 0.564618 0.090240 F F F O
0.360521 0.384357 0.090240 F F F O
0.166667 0.217691 0.090240 F F F O
0.513594 0.231285 0.090240 F F F O
0.360521 0.051024 0.090240 F F F O
0.027187 0.615642 0.134336 F F F O
0.833334 0.448976 0.134336 F F F O
0.180261 0.435382 0.134336 F F F O
0.680261 0.602049 0.134336 F F F O
0.333334 0.615642 0.134336 F F F O
0.527187 0.782309 0.134336 F F F O
0.027187 0.948975 0.134336 F F F O
0.833334 0.782309 0.134336 F F F O
0.180261 0.768715 0.134336 F F F O
0.527187 0.115642 0.134336 F F F O
0.680261 0.935382 0.134336 F F F O
0.333334 0.948975 0.134336 F F F O
0.027187 0.282309 0.134336 F F F O
0.180261 0.102049 0.134336 F F F O
0.833334 0.115642 0.134336 F F F O
0.333334 0.282309 0.134336 F F F O
0.680261 0.268715 0.134336 F F F O
0.527187 0.448976 0.134336 F F F O
0.693854 0.717691 0.178431 F F F O
0.846927 0.897951 0.178431 F F F O
0.000000 0.717691 0.178431 F F F O
0.193854 0.884357 0.178431 F F F O
0.500000 0.551024 0.178431 F F F O
0.693854 0.384358 0.178431 F F F O
0.846927 0.564618 0.178431 F F F O
0.193854 0.551024 0.178431 F F F O
0.346927 0.731284 0.178431 F F F O
0.500000 0.217691 0.178431 F F F O
0.693854 0.051025 0.178431 F F F O
0.846927 0.231285 0.178431 F F F O
0.193854 0.217691 0.178431 F F F O
0.346927 0.397951 0.178431 F F F O
0.346927 0.064618 0.178431 F F F O
0.500000 0.884357 0.178431 F F F O
0.000000 0.051024 0.178431 F F F O
0.000000 0.384357 0.178431 F F F O
0.230902 0.220025 0.423154 F F F O
0.979531 0.405222 0.403358 F F F O
0.917688 0.491783 0.413987 F F F O
0.259917 0.423603 0.432377 F F F O
0.670219 0.166990 0.405953 F F F O
0.143121 0.033039 0.422572 F F F O
0.661055 0.735833 0.411593 F F F O
0.756801 0.384047 0.404219 F F F O
