Ti7 O11
1.0
18.000000 0.000000 0.000000
0.000000 18.000000 0.000000
0.000000 0.000000 18.000000
Ti O
7 11
direct
0.504368 0.625625 0.452562 Ti
0.518387 0.625649 0.618264 Ti
0.532002 0.429440 0.395421 Ti
0.573995 0.492901 0.353094 Ti
0.526630 0.526011 0.550095 Ti
0.374070 0.475709 0.468350 Ti
0.433846 0.500307 0.575546 Ti
0.399841 0.461643 0.494235 O
0.386645 0.496130 0.390439 O
0.482444 0.651850 0.547549 O
0.638841 0.563689 0.577479 O
0.557560 0.521930 0.324076 O
0.388063 0.524235 0.553797 O
0.632856 0.512166 0.372005 O
0.667270 0.477018 0.532624 O
0.502041 0.504666 0.498946 O
0.623685 0.388255 0.567179 O
0.457024 0.558194 0.605501 O
