Ti7 O11
1.0
18.000000 0.000000 0.000000
0.000000 18.000000 0.000000
0.000000 0.000000 18.000000
Ti O
7 11
direct
0.610289 0.479777 0.317610 Ti
0.319205 0.471004 0.445879 Ti
0.464615 0.429308 0.428546 Ti
0.511294 0.604789 0.465405 Ti
0.412658 0.499568 0.564028 Ti
0.595561 0.493451 0.566994 Ti
0.535242 0.622967 0.630256 Ti
0.547423 0.543522 0.294528 O
0.397385 0.488168 0.381686 O
0.658039 0.494953 0.494360 O
0.496600 0.505733 0.498842 O
0.659039 0.535746 0.372759 O
0.389076 0.412293 0.502816 O
0.639050 0.431017 0.624689 O
0.489656 0.662078 0.542406 O
0.342611 0.549570 0.506812 O
0.504703 0.524125 0.635011 O
0.627122 0.587344 0.604539 O
