Ti7 O10
1.0
18.000000 0.000000 0.000000
0.000000 18.000000 0.000000
0.000000 0.000000 18.000000
Ti O
7 10
direct
0.422763 0.496439 0.307839 Ti
0.479838 0.463843 0.446836 Ti
0.630072 0.500108 0.469853 Ti
0.463451 0.489132 0.621583 Ti
0.572189 0.383240 0.571033 Ti
0.622083 0.534856 0.626156 Ti
0.502842 0.609278 0.527571 Ti
0.502625 0.450850 0.341054 O
0.573972 0.400746 0.464606 O
0.391149 0.509109 0.398983 O
0.542330 0.549397 0.436261 O
0.478845 0.383169 0.609217 O
0.555329 0.488481 0.555211 O
0.431221 0.528458 0.529893 O
0.426750 0.667089 0.526910 O
0.525013 0.585844 0.631800 O
0.676800 0.560744 0.545767 O
