Ti6 O11
1.0
18.000000 0.000000 0.000000
0.000000 18.000000 0.000000
0.000000 0.000000 18.000000
Ti O
6 11
Selective dynamics
direct
0.484078 0.353107 0.454712 F F F Ti
0.498010 0.646893 0.405834 F F F Ti
0.478976 0.518047 0.533270 F F F Ti
0.388398 0.404585 0.615530 F F F Ti
0.437082 0.572200 0.353957 F F F Ti
0.443583 0.497291 0.599563 F F F Ti
0.494132 0.434147 0.451555 F F F O
0.611602 0.481893 0.419218 F F F O
0.514840 0.355981 0.533307 F F F O
0.490919 0.515548 0.434507 F F F O
0.564309 0.544819 0.535991 F F F O
0.518712 0.488272 0.646043 F F F O
0.445102 0.618261 0.519586 F F F O
0.525883 0.459211 0.557558 F F F O
0.403485 0.354585 0.428272 F F F O
0.541216 0.589572 0.362116 F F F O
0.391981 0.575315 0.413077 F F F O
