Ti6 O11
1.0
18.000000 0.000000 0.000000
0.000000 18.000000 0.000000
0.000000 0.000000 18.000000
Ti O
6 11
direct
0.439934 0.581133 0.327412 Ti
0.488437 0.330079 0.475477 Ti
0.488353 0.637411 0.457967 Ti
0.455470 0.395930 0.618144 Ti
0.529490 0.489994 0.503990 Ti
0.427926 0.561233 0.608917 Ti
0.498444 0.423168 0.426328 O
0.398429 0.343553 0.452039 O
0.622906 0.476446 0.483208 O
0.390256 0.614372 0.404522 O
0.495002 0.663217 0.349808 O
0.513239 0.547615 0.399743 O
0.436974 0.309116 0.568889 O
0.507074 0.499723 0.617528 O
0.536241 0.390364 0.558389 O
0.431832 0.553166 0.508433 O
0.572300 0.593211 0.503299 O
