Ti7 O10
1.0
18.000000 0.000000 0.000000
0.000000 18.000000 0.000000
0.000000 0.000000 18.000000
Ti O
7 10
direct
0.371863 0.429443 0.466967 Ti
0.487067 0.498512 0.386646 Ti
0.510862 0.647811 0.413190 Ti
0.618117 0.552535 0.473172 Ti
0.503167 0.484392 0.562067 Ti
0.396683 0.600906 0.513074 Ti
0.573533 0.672017 0.555639 Ti
0.380702 0.337343 0.484431 O
0.401275 0.443696 0.366595 O
0.481712 0.430452 0.471086 O
0.549553 0.444627 0.341819 O
0.513909 0.599028 0.498178 O
0.499390 0.407817 0.618050 O
0.611161 0.492717 0.554040 O
0.392801 0.501682 0.553369 O
0.398769 0.638367 0.597928 O
0.657061 0.635450 0.522804 O
