Ti7 O11
1.0
18.000000 0.000000 0.000000
0.000000 18.000000 0.000000
0.000000 0.000000 18.000000
Ti O
7 11
direct
0.416587 0.438719 0.414759 Ti
0.482183 0.596497 0.407949 Ti
0.551415 0.650349 0.401053 Ti
0.577610 0.462204 0.373431 Ti
0.513060 0.476336 0.327607 Ti
0.586689 0.340333 0.548476 Ti
0.382405 0.532265 0.560728 Ti
0.495740 0.405927 0.335440 O
0.449387 0.356123 0.464285 O
0.501920 0.498160 0.445868 O
0.594058 0.383004 0.436516 O
0.584439 0.581442 0.394349 O
0.542062 0.319045 0.498083 O
0.531351 0.546382 0.536204 O
0.426013 0.534299 0.395338 O
0.434407 0.513344 0.650234 O
0.627990 0.492414 0.640490 O
0.536979 0.608185 0.613140 O
