Ti7 O11
1.0
18.000000 0.000000 0.000000
0.000000 18.000000 0.000000
0.000000 0.000000 18.000000
Ti O
7 11
direct
0.466597 0.372443 0.440784 Ti
0.553327 0.591287 0.356780 Ti
0.367904 0.624164 0.432905 Ti
0.411476 0.400896 0.544847 Ti
0.540121 0.421668 0.543630 Ti
0.456565 0.492144 0.452485 Ti
0.640407 0.428072 0.602670 Ti
0.495697 0.565581 0.421707 O
0.382415 0.479473 0.422610 O
0.629382 0.583910 0.382962 O
0.378109 0.501335 0.617725 O
0.483863 0.615533 0.534285 O
0.331541 0.528969 0.558367 O
0.554375 0.398139 0.639942 O
0.557535 0.557926 0.597478 O
0.479806 0.681435 0.495872 O
0.667462 0.564326 0.516130 O
0.540670 0.518616 0.531641 O
