Ti6 O11
1.0
18.000000 0.000000 0.000000
0.000000 18.000000 0.000000
0.000000 0.000000 18.000000
Ti O
6 11
direct
0.567673 0.650600 0.446341 Ti
0.512383 0.424164 0.529120 Ti
0.510426 0.436037 0.429981 Ti
0.589666 0.525755 0.548103 Ti
0.466711 0.639043 0.528647 Ti
0.405912 0.466775 0.496574 Ti
0.397681 0.536874 0.382454 O
0.591903 0.537081 0.620101 O
0.512784 0.539024 0.500706 O
0.615579 0.373230 0.429012 O
0.611546 0.599808 0.499817 O
0.460364 0.466510 0.471871 O
0.318701 0.531168 0.443381 O
0.542516 0.347082 0.517636 O
0.541155 0.656244 0.584131 O
0.562038 0.448045 0.456594 O
0.437764 0.375257 0.620471 O
