SYSTEM=Al_Al2O3
NPAR=8
PREC = Accurate
EDIFF=1.0e-03
ALGO = Fast
IBRION = 2
ISIF = 2
LWAVE=F
LCHARG=F
NSW = 100
NELM = 100
ISMEAR = 1
SIGMA = 0.1

LREAL = Auto
ENCUT = 400
