Ti7 O11
1.0
18.000000 0.000000 0.000000
0.000000 18.000000 0.000000
0.000000 0.000000 18.000000
Ti O
7 11
direct
0.491525 0.541297 0.448227 Ti
0.393503 0.500821 0.351718 Ti
0.355322 0.480837 0.447102 Ti
0.649207 0.569302 0.559384 Ti
0.394157 0.520245 0.517313 Ti
0.524281 0.605208 0.648120 Ti
0.626426 0.631343 0.476659 Ti
0.360892 0.458481 0.431700 O
0.598677 0.494832 0.402326 O
0.623466 0.370092 0.547351 O
0.465929 0.639051 0.618304 O
0.600341 0.539249 0.469529 O
0.659350 0.408538 0.443004 O
0.355980 0.543022 0.454002 O
0.456636 0.339496 0.556554 O
0.527445 0.513849 0.648144 O
0.403659 0.592876 0.513628 O
0.580862 0.487660 0.601367 O
