Ti7 O11
1.0
18.000000 0.000000 0.000000
0.000000 18.000000 0.000000
0.000000 0.000000 18.000000
Ti O
7 11
direct
0.546053 0.439057 0.636353 Ti
0.450505 0.503227 0.420245 Ti
0.411073 0.444051 0.543866 Ti
0.562613 0.557536 0.553474 Ti
0.674839 0.575224 0.515807 Ti
0.528166 0.636819 0.453378 Ti
0.392223 0.613813 0.481594 Ti
0.502464 0.402625 0.355372 O
0.423346 0.420272 0.340233 O
0.610588 0.631873 0.416959 O
0.424877 0.580138 0.503711 O
0.367118 0.374215 0.466657 O
0.470125 0.364307 0.427109 O
0.588385 0.453614 0.578670 O
0.386934 0.375295 0.545687 O
0.486950 0.523368 0.637684 O
0.378041 0.462775 0.589466 O
0.485787 0.572888 0.387343 O
