Ti7 O11
1.0
18.000000 0.000000 0.000000
0.000000 18.000000 0.000000
0.000000 0.000000 18.000000
Ti O
7 11
direct
0.421387 0.419043 0.445622 Ti
0.652072 0.397242 0.464876 Ti
0.421916 0.530239 0.335556 Ti
0.471357 0.575556 0.478178 Ti
0.549878 0.448478 0.565828 Ti
0.436767 0.716250 0.524375 Ti
0.595500 0.529400 0.687017 Ti
0.330984 0.393383 0.439513 O
0.450738 0.433353 0.345044 O
0.596556 0.413812 0.391967 O
0.381959 0.520783 0.431602 O
0.390408 0.643828 0.475886 O
0.505603 0.569000 0.378736 O
0.447207 0.484038 0.535083 O
0.575578 0.357946 0.523365 O
0.628139 0.487138 0.511756 O
0.516278 0.660956 0.532091 O
0.589522 0.439929 0.667594 O
