Ti7 O11
1.0
18.000000 0.000000 0.000000
0.000000 18.000000 0.000000
0.000000 0.000000 18.000000
Ti O
7 11
Selective dynamics
direct
0.332942 0.498671 0.464290 F F F Ti
0.486101 0.414523 0.457611 F F F Ti
0.635868 0.453164 0.429792 F F F Ti
0.543564 0.583831 0.428290 F F F Ti
0.587100 0.407824 0.588976 F F F Ti
0.454133 0.527265 0.560860 F F F Ti
0.632940 0.569992 0.568801 F F F Ti
0.362549 0.395787 0.462510 F F F O
0.611793 0.457158 0.351289 F F F O
0.591988 0.366130 0.465546 F F F O
0.552676 0.493664 0.490102 F F F O
0.436007 0.519320 0.464553 F F F O
0.654822 0.567983 0.449301 F F F O
0.477786 0.410443 0.570387 F F F O
0.679185 0.457691 0.553379 F F F O
0.357458 0.513367 0.572385 F F F O
0.522184 0.617074 0.542295 F F F O
0.557312 0.493714 0.618189 F F F O
