Ti7 O11
1.0
18.000000 0.000000 0.000000
0.000000 18.000000 0.000000
0.000000 0.000000 18.000000
Ti O
7 11
Selective dynamics
direct
0.454003 0.402411 0.397082 F F F Ti
0.597683 0.372113 0.427766 F F F Ti
0.579310 0.512154 0.371109 F F F Ti
0.531314 0.638858 0.486523 F F F Ti
0.457802 0.484464 0.549101 F F F Ti
0.620774 0.498477 0.513195 F F F Ti
0.563602 0.515712 0.676367 F F F Ti
0.505019 0.382967 0.486555 F F F O
0.420734 0.505448 0.437571 F F F O
0.533058 0.410600 0.337518 F F F O
0.644116 0.442964 0.425231 F F F O
0.452970 0.649867 0.496999 F F F O
0.529400 0.536529 0.458137 F F F O
0.408660 0.412104 0.566696 F F F O
0.456962 0.502063 0.656876 F F F O
0.582134 0.441763 0.586192 F F F O
0.407764 0.555306 0.569825 F F F O
0.555278 0.565308 0.572870 F F F O
