Ti7 O11
1.0
18.000000 0.000000 0.000000
0.000000 18.000000 0.000000
0.000000 0.000000 18.000000
Ti O
7 11
direct
0.392519 0.466081 0.392881 Ti
0.532981 0.431226 0.499924 Ti
0.448479 0.577500 0.492907 Ti
0.539231 0.528133 0.358409 Ti
0.477773 0.420438 0.657739 Ti
0.625411 0.406282 0.637517 Ti
0.559556 0.549922 0.605572 Ti
0.519584 0.508584 0.267854 O
0.418267 0.477628 0.494698 O
0.607306 0.388937 0.456167 O
0.507398 0.433873 0.390501 O
0.306231 0.504990 0.403138 O
0.439179 0.560389 0.378014 O
0.546563 0.540661 0.487619 O
0.624083 0.468049 0.558244 O
0.463419 0.592617 0.597256 O
0.619483 0.622261 0.623022 O
0.556683 0.466351 0.686122 O
