Ti7 O11
1.0
18.000000 0.000000 0.000000
0.000000 18.000000 0.000000
0.000000 0.000000 18.000000
Ti O
7 11
direct
0.348986 0.447758 0.436623 Ti
0.606017 0.511505 0.381118 Ti
0.592453 0.346192 0.563065 Ti
0.421577 0.488683 0.548210 Ti
0.516175 0.556598 0.576425 Ti
0.437638 0.484166 0.669546 Ti
0.452560 0.554196 0.534530 Ti
0.470857 0.399448 0.400313 O
0.369615 0.436654 0.544945 O
0.413518 0.524222 0.629879 O
0.426985 0.525843 0.366811 O
0.399941 0.460717 0.467102 O
0.645072 0.512192 0.453702 O
0.389048 0.551850 0.530878 O
0.310263 0.476091 0.524242 O
0.569581 0.559494 0.615220 O
0.532498 0.628095 0.448915 O
0.602269 0.373015 0.451051 O
