Ti7 O11
1.0
18.000000 0.000000 0.000000
0.000000 18.000000 0.000000
0.000000 0.000000 18.000000
Ti O
7 11
direct
0.483859 0.424477 0.464644 Ti
0.333479 0.484874 0.473569 Ti
0.648183 0.446802 0.469487 Ti
0.567550 0.484932 0.344065 Ti
0.478234 0.601517 0.464053 Ti
0.550233 0.399383 0.600789 Ti
0.584344 0.550323 0.562850 Ti
0.379611 0.400468 0.443636 O
0.503380 0.409187 0.358518 O
0.645944 0.425034 0.369407 O
0.536116 0.664978 0.428454 O
0.557944 0.514070 0.452049 O
0.494677 0.488278 0.559856 O
0.463128 0.364823 0.553381 O
0.334066 0.463566 0.562317 O
0.587956 0.490509 0.646950 O
0.578939 0.374578 0.500367 O
0.507066 0.618411 0.562233 O
