Ti7 O11
1.0
18.000000 0.000000 0.000000
0.000000 18.000000 0.000000
0.000000 0.000000 18.000000
Ti O
7 11
direct
0.337473 0.495242 0.448525 Ti
0.485776 0.538858 0.454229 Ti
0.635211 0.592039 0.459487 Ti
0.531829 0.702950 0.451942 Ti
0.396376 0.425980 0.581889 Ti
0.537159 0.611617 0.588661 Ti
0.461098 0.503598 0.694622 Ti
0.494116 0.325894 0.464292 O
0.346148 0.473432 0.358601 O
0.429161 0.448237 0.476630 O
0.397198 0.581733 0.472958 O
0.709356 0.542139 0.491221 O
0.471281 0.411701 0.652294 O
0.499618 0.358562 0.538017 O
0.386021 0.517488 0.623822 O
0.554035 0.535414 0.660456 O
0.568828 0.538694 0.525602 O
0.598939 0.681600 0.518056 O
