Ti7 O11
1.0
18.000000 0.000000 0.000000
0.000000 18.000000 0.000000
0.000000 0.000000 18.000000
Ti O
7 11
direct
0.505784 0.577833 0.641193 Ti
0.544187 0.582496 0.409139 Ti
0.545614 0.661101 0.415926 Ti
0.438347 0.535347 0.643820 Ti
0.639299 0.590912 0.432435 Ti
0.396609 0.447616 0.582990 Ti
0.366110 0.573134 0.451071 Ti
0.491031 0.312390 0.450429 O
0.373990 0.404429 0.415628 O
0.559791 0.485605 0.681367 O
0.473999 0.425408 0.642624 O
0.675349 0.559523 0.451904 O
0.392061 0.485435 0.605498 O
0.582776 0.552085 0.545213 O
0.499245 0.393701 0.514606 O
0.396786 0.427533 0.537129 O
0.558941 0.670127 0.551856 O
0.399707 0.600493 0.488475 O
