Ti7 O11
1.0
18.000000 0.000000 0.000000
0.000000 18.000000 0.000000
0.000000 0.000000 18.000000
Ti O
7 11
direct
0.442890 0.647012 0.427805 Ti
0.469876 0.491286 0.626614 Ti
0.393835 0.551856 0.453426 Ti
0.625225 0.607785 0.497632 Ti
0.580444 0.465624 0.544659 Ti
0.492424 0.558464 0.556407 Ti
0.412527 0.397543 0.447156 Ti
0.427020 0.399685 0.596722 O
0.456964 0.529780 0.400351 O
0.412179 0.336145 0.485842 O
0.568951 0.430276 0.357026 O
0.387030 0.637119 0.425975 O
0.639876 0.454930 0.513835 O
0.525822 0.397951 0.414319 O
0.458593 0.509563 0.628178 O
0.523039 0.516698 0.442668 O
0.468732 0.447485 0.499523 O
0.547075 0.635247 0.612603 O
