Ti7 O11
1.0
18.000000 0.000000 0.000000
0.000000 18.000000 0.000000
0.000000 0.000000 18.000000
Ti O
7 11
direct
0.479061 0.408807 0.462375 Ti
0.339194 0.483557 0.455296 Ti
0.644994 0.461366 0.439919 Ti
0.535701 0.585989 0.447095 Ti
0.582239 0.405016 0.588228 Ti
0.447489 0.524860 0.562733 Ti
0.620983 0.553281 0.587622 Ti
0.372501 0.388604 0.466298 O
0.626867 0.421467 0.355334 O
0.586989 0.372438 0.481643 O
0.445529 0.513182 0.453105 O
0.627983 0.559333 0.405388 O
0.472602 0.418964 0.566950 O
0.595706 0.487113 0.657872 O
0.558328 0.493511 0.508876 O
0.672017 0.459838 0.555386 O
0.341943 0.508752 0.553042 O
0.528803 0.609439 0.552252 O
