Ti7 O11
1.0
18.000000 0.000000 0.000000
0.000000 18.000000 0.000000
0.000000 0.000000 18.000000
Ti O
7 11
Selective dynamics
direct
0.479887 0.432255 0.442422 F F F Ti
0.355131 0.493961 0.478188 F F F Ti
0.621934 0.430460 0.425350 F F F Ti
0.533966 0.591990 0.454928 F F F Ti
0.588188 0.413104 0.608685 F F F Ti
0.489883 0.552939 0.596493 F F F Ti
0.667323 0.558148 0.546884 F F F Ti
0.368560 0.401586 0.478401 F F F O
0.554826 0.393094 0.504691 F F F O
0.543211 0.371707 0.363115 F F F O
0.543605 0.490712 0.391775 F F F O
0.466241 0.516573 0.500206 F F F O
0.631627 0.553359 0.452975 F F F O
0.328981 0.478113 0.568174 F F F O
0.479902 0.430898 0.622338 F F F O
0.660070 0.440252 0.529411 F F F O
0.600916 0.519409 0.628278 F F F O
0.568454 0.600530 0.543937 F F F O
