Ti7 O11
1.0
18.000000 0.000000 0.000000
0.000000 18.000000 0.000000
0.000000 0.000000 18.000000
Ti O
7 11
direct
0.470712 0.423291 0.467583 Ti
0.629889 0.444779 0.422441 Ti
0.335792 0.509278 0.484626 Ti
0.534725 0.576300 0.441959 Ti
0.595689 0.393174 0.574044 Ti
0.498329 0.522469 0.599517 Ti
0.653089 0.546138 0.550888 Ti
0.364827 0.422069 0.439982 O
0.570800 0.363723 0.469879 O
0.527970 0.478877 0.387633 O
0.642622 0.555521 0.439491 O
0.325241 0.470793 0.568356 O
0.484724 0.413501 0.579339 O
0.563683 0.484473 0.509461 O
0.682539 0.441268 0.521584 O
0.445042 0.528560 0.498744 O
0.599172 0.489962 0.631450 O
0.557872 0.604911 0.549279 O
