Al96 O48
1.0
8.428300 0.000000 0.000000
0.000000 14.598200 0.000000
0.000000 0.000000 16.692379
Al O
96 48
direct
0.000000 0.733823 0.651496 Al
0.000000 0.067157 0.648763 Al
0.166667 0.567157 0.650811 Al
0.833335 0.567157 0.650811 Al
0.666668 0.067157 0.648763 Al
0.666668 0.733823 0.651496 Al
0.500001 0.567157 0.650811 Al
0.333334 0.067157 0.648763 Al
0.333334 0.733823 0.651496 Al
0.500001 0.900488 0.652179 Al
0.833335 0.900488 0.652179 Al
0.166667 0.900488 0.652179 Al
0.833335 0.233824 0.649454 Al
0.166667 0.233824 0.649454 Al
0.666668 0.400490 0.650129 Al
0.000000 0.400490 0.650129 Al
0.500001 0.233824 0.649454 Al
0.333334 0.400490 0.650129 Al
0.844678 0.119965 0.507408 Al
0.291062 0.448777 0.505321 Al
0.305746 0.626850 0.504745 Al
0.692100 0.283947 0.510270 Al
0.568952 0.927471 0.486254 Al
0.056347 0.775582 0.475922 Al
0.346928 0.166667 0.354056 Al
0.846928 0.666667 0.354056 Al
0.346928 0.833336 0.354056 Al
0.846928 0.333333 0.354056 Al
0.846928 0.000000 0.354056 Al
0.346928 0.500000 0.354056 Al
0.513593 0.333333 0.324630 Al
0.513593 0.666666 0.324630 Al
0.013594 0.833336 0.324630 Al
0.013594 0.500000 0.324630 Al
0.013594 0.166667 0.324630 Al
0.513593 0.000000 0.324630 Al
0.346928 0.500000 0.216732 Al
0.346928 0.833336 0.216732 Al
0.846928 0.666667 0.216732 Al
0.846928 0.333333 0.216732 Al
0.346928 0.166667 0.216732 Al
0.846928 0.000000 0.216732 Al
0.680261 0.166667 0.086037 Al
0.513593 0.333333 0.187311 Al
0.680261 0.833336 0.086037 Al
0.680261 0.500000 0.086037 Al
0.513593 0.666666 0.187311 Al
0.180259 0.333333 0.086037 Al
0.013594 0.166667 0.187311 Al
0.180259 0.000000 0.086037 Al
0.013594 0.833336 0.187311 Al
0.180259 0.666666 0.086037 Al
0.013594 0.500000 0.187311 Al
0.513593 0.000000 0.187311 Al
0.346928 0.166667 0.056610 Al
0.846928 0.000000 0.056610 Al
0.846928 0.333333 0.056610 Al
0.346928 0.500000 0.056610 Al
0.846928 0.666667 0.056610 Al
0.346928 0.833336 0.056610 Al
0.833335 0.344210 0.789320 Al
0.166667 0.344210 0.789320 Al
0.666668 0.510876 0.790001 Al
0.000000 0.510876 0.790001 Al
0.500001 0.344210 0.789320 Al
0.333334 0.510876 0.790001 Al
0.833335 0.677543 0.790686 Al
0.166667 0.677543 0.790686 Al
0.666668 0.844207 0.791367 Al
0.000000 0.844207 0.791367 Al
0.500001 0.677543 0.790686 Al
0.333334 0.844207 0.791367 Al
0.500001 0.010877 0.787953 Al
0.833335 0.010877 0.787953 Al
0.166667 0.010877 0.787953 Al
0.666668 0.177543 0.788637 Al
0.000000 0.177543 0.788637 Al
0.333334 0.177543 0.788637 Al
0.833335 0.121262 0.927825 Al
0.166667 0.121262 0.927825 Al
0.500001 0.121262 0.927825 Al
0.833335 0.454595 0.929191 Al
0.166667 0.454595 0.929191 Al
0.666668 0.287929 0.928510 Al
0.000000 0.287929 0.928510 Al
0.500001 0.454595 0.929191 Al
0.333334 0.287929 0.928510 Al
0.666668 0.621262 0.929876 Al
0.000000 0.621262 0.929876 Al
0.833335 0.787926 0.930557 Al
0.166667 0.787926 0.930557 Al
0.500001 0.787926 0.930557 Al
0.333334 0.621262 0.929876 Al
0.333334 0.954597 0.931233 Al
0.000000 0.954597 0.931233 Al
0.666668 0.954597 0.931233 Al
0.034757 0.053430 0.476430 O
0.185506 0.429589 0.393010 O
0.498990 0.427683 0.405507 O
0.344001 0.287041 0.386629 O
0.878671 0.781809 0.398982 O
0.165718 0.772239 0.381495 O
0.064350 0.922662 0.407942 O
0.208029 0.947014 0.406417 O
0.053416 0.637344 0.399771 O
0.663461 0.268278 0.389546 O
0.507343 0.089995 0.407166 O
0.185480 0.081798 0.383530 O
0.513593 0.231285 0.267372 O
0.360521 0.384358 0.267372 O
0.666667 0.384358 0.267372 O
0.513593 0.564618 0.267372 O
0.360521 0.717691 0.267372 O
0.666667 0.717691 0.267372 O
0.166667 0.884356 0.267372 O
0.860521 0.884356 0.267372 O
0.013594 0.731282 0.267372 O
0.013594 0.397951 0.267372 O
0.166667 0.551025 0.267372 O
0.860521 0.551025 0.267372 O
0.166667 0.217691 0.267372 O
0.860521 0.217691 0.267372 O
0.013594 0.064618 0.267372 O
0.513593 0.897953 0.267372 O
0.360521 0.051025 0.267372 O
0.666667 0.051025 0.267372 O
0.693854 0.282309 0.136671 O
0.846928 0.102049 0.136671 O
0.500000 0.115643 0.136671 O
0.693854 0.948973 0.136671 O
0.846928 0.768718 0.136671 O
0.500000 0.782309 0.136671 O
0.693854 0.615642 0.136671 O
0.846928 0.435382 0.136671 O
0.500000 0.448976 0.136671 O
0.000000 0.282309 0.136671 O
0.346928 0.268715 0.136671 O
0.193854 0.448976 0.136671 O
0.193854 0.115642 0.136671 O
0.000000 0.948973 0.136671 O
0.346928 0.935382 0.136671 O
0.000000 0.615642 0.136671 O
0.346928 0.602048 0.136671 O
0.193854 0.782309 0.136671 O
