Ti6 O11
1.0
18.000000 0.000000 0.000000
0.000000 18.000000 0.000000
0.000000 0.000000 18.000000
Ti O
6 11
direct
0.663720 0.527165 0.539049 Ti
0.362502 0.516885 0.506863 Ti
0.443115 0.584888 0.456367 Ti
0.410201 0.343982 0.476637 Ti
0.514842 0.596171 0.455437 Ti
0.390241 0.510475 0.355382 Ti
0.499858 0.630337 0.488721 O
0.461151 0.379281 0.544269 O
0.592781 0.537043 0.538069 O
0.472382 0.505906 0.464286 O
0.346017 0.445852 0.481652 O
0.580950 0.374911 0.441935 O
0.515622 0.625869 0.640860 O
0.360731 0.472506 0.575502 O
0.508884 0.417168 0.450119 O
0.622481 0.596269 0.602473 O
0.442462 0.651751 0.602059 O
