Al246 O136
1.0
8.428300 0.000000 0.000000
0.000000 14.598200 0.000000
0.000000 0.000000 49.476269
Al O
246 136
direct
0.346928 0.833336 0.073157 Al
0.846928 0.333333 0.073157 Al
0.680261 0.500000 0.107325 Al
0.846928 0.666667 0.073157 Al
0.680261 0.833336 0.107325 Al
0.846928 0.000000 0.073157 Al
0.680261 0.166667 0.107325 Al
0.346928 0.500000 0.073157 Al
0.180261 0.666666 0.107325 Al
0.346928 0.166667 0.073157 Al
0.180261 0.333333 0.107325 Al
0.180261 0.000000 0.107325 Al
0.013594 0.500000 0.117253 Al
0.513593 0.666666 0.117253 Al
0.346928 0.500000 0.151420 Al
0.013594 0.833336 0.117253 Al
0.846928 0.666667 0.151420 Al
0.513593 0.000000 0.117253 Al
0.346928 0.833336 0.151420 Al
0.013594 0.166667 0.117253 Al
0.846928 0.000000 0.151420 Al
0.513593 0.333333 0.117253 Al
0.346928 0.166667 0.151420 Al
0.846928 0.333333 0.151420 Al
0.680261 0.833336 0.161347 Al
0.680261 0.500000 0.161347 Al
0.180261 0.666666 0.161347 Al
0.680261 0.166667 0.161347 Al
0.180261 0.333333 0.161347 Al
0.180261 0.000000 0.161347 Al
0.513593 0.666666 0.063229 Al
0.513593 0.333333 0.063229 Al
0.013594 0.833336 0.063229 Al
0.013594 0.166667 0.063229 Al
0.013594 0.500000 0.063229 Al
0.513593 0.000000 0.063229 Al
0.680261 0.166667 0.293634 Al
0.513593 0.333333 0.327802 Al
0.680261 0.833336 0.293634 Al
0.680261 0.500000 0.293634 Al
0.513593 0.666666 0.327802 Al
0.180259 0.333333 0.293634 Al
0.013594 0.166667 0.327802 Al
0.180259 0.000000 0.293634 Al
0.013594 0.833336 0.327802 Al
0.180259 0.666666 0.293634 Al
0.013594 0.500000 0.327802 Al
0.513593 0.000000 0.327802 Al
0.346928 0.833336 0.205444 Al
0.346928 0.500000 0.205444 Al
0.180261 0.666666 0.239610 Al
0.846928 0.333333 0.205444 Al
0.680261 0.166667 0.239610 Al
0.846928 0.000000 0.205444 Al
0.680261 0.833336 0.239610 Al
0.846928 0.666667 0.205444 Al
0.680261 0.500000 0.239610 Al
0.346928 0.166667 0.205444 Al
0.180261 0.000000 0.239610 Al
0.180261 0.333333 0.239610 Al
0.513593 0.000000 0.249538 Al
0.346928 0.166667 0.283706 Al
0.846928 0.000000 0.283706 Al
0.013594 0.500000 0.249538 Al
0.013594 0.166667 0.249538 Al
0.846928 0.333333 0.283706 Al
0.513593 0.333333 0.249538 Al
0.346928 0.500000 0.283706 Al
0.013594 0.833336 0.249538 Al
0.513593 0.666666 0.249538 Al
0.846928 0.666667 0.283706 Al
0.346928 0.833336 0.283706 Al
0.013594 0.833336 0.195515 Al
0.513593 0.666666 0.195515 Al
0.013594 0.500000 0.195515 Al
0.513593 0.333333 0.195515 Al
0.013594 0.166667 0.195515 Al
0.513593 0.000000 0.195515 Al
0.666668 0.067157 0.481281 Al
0.000000 0.067157 0.481281 Al
0.333334 0.067157 0.481281 Al
0.666668 0.400490 0.481742 Al
0.000000 0.400490 0.481742 Al
0.833335 0.233824 0.481514 Al
0.166667 0.233824 0.481514 Al
0.500001 0.233824 0.481514 Al
0.666668 0.733823 0.482203 Al
0.000000 0.733823 0.482203 Al
0.833335 0.567157 0.481972 Al
0.166667 0.567157 0.481972 Al
0.500001 0.567157 0.481972 Al
0.500001 0.900488 0.482433 Al
0.625838 0.588709 0.428044 Al
0.846928 0.000000 0.384059 Al
0.728280 0.998308 0.432510 Al
0.513593 0.333333 0.374131 Al
0.346928 0.500000 0.337728 Al
0.513593 0.666666 0.374131 Al
0.346928 0.833336 0.337728 Al
0.013594 0.833336 0.374131 Al
0.517451 0.362739 0.423860 Al
0.147160 0.280531 0.429374 Al
0.013594 0.500000 0.374131 Al
0.846928 0.666667 0.337728 Al
0.013594 0.166667 0.374131 Al
0.846928 0.333333 0.337728 Al
0.513593 0.000000 0.374131 Al
0.346928 0.166667 0.337728 Al
0.846928 0.000000 0.337728 Al
0.346928 0.500000 0.384059 Al
0.955073 0.609385 0.433567 Al
0.846928 0.666667 0.384059 Al
0.846928 0.333333 0.384059 Al
0.346928 0.833336 0.384059 Al
0.346928 0.166667 0.384059 Al
0.917514 0.145766 0.433200 Al
0.833335 0.900488 0.482433 Al
0.333334 0.400490 0.481742 Al
0.333334 0.733823 0.482203 Al
0.166667 0.900488 0.482433 Al
0.500001 0.010877 0.528241 Al
0.833335 0.010877 0.528241 Al
0.166667 0.010877 0.528241 Al
0.666668 0.177543 0.528472 Al
0.000000 0.177543 0.528472 Al
0.333334 0.177543 0.528472 Al
0.833335 0.344210 0.528702 Al
0.166667 0.344210 0.528702 Al
0.666668 0.510876 0.528932 Al
0.000000 0.510876 0.528932 Al
0.500001 0.344210 0.528702 Al
0.333334 0.510876 0.528932 Al
0.833335 0.677543 0.529163 Al
0.166667 0.677543 0.529163 Al
0.666668 0.844207 0.529393 Al
0.000000 0.844207 0.529393 Al
0.500001 0.677543 0.529163 Al
0.333334 0.844207 0.529393 Al
0.666668 0.398315 0.622852 Al
0.000000 0.398315 0.622852 Al
0.833335 0.564981 0.623081 Al
0.166667 0.564981 0.623081 Al
0.500001 0.564981 0.623081 Al
0.333334 0.398315 0.622852 Al
0.833335 0.121262 0.575431 Al
0.166667 0.121262 0.575431 Al
0.500001 0.121262 0.575431 Al
0.833335 0.454595 0.575892 Al
0.166667 0.454595 0.575892 Al
0.666668 0.287929 0.575662 Al
0.000000 0.287929 0.575662 Al
0.500001 0.454595 0.575892 Al
0.333334 0.287929 0.575662 Al
0.666668 0.621262 0.576123 Al
0.000000 0.621262 0.576123 Al
0.833335 0.787926 0.576353 Al
0.166667 0.787926 0.576353 Al
0.500001 0.787926 0.576353 Al
0.333334 0.621262 0.576123 Al
0.333334 0.064982 0.622391 Al
0.333334 0.954597 0.576581 Al
0.000000 0.064982 0.622391 Al
0.000000 0.954597 0.576581 Al
0.666668 0.064982 0.622391 Al
0.666668 0.954597 0.576581 Al
0.833335 0.231648 0.622622 Al
0.166667 0.231648 0.622622 Al
0.500001 0.231648 0.622622 Al
0.500001 0.898316 0.623541 Al
0.666668 0.731645 0.623313 Al
0.000000 0.731645 0.623313 Al
0.833335 0.898316 0.623541 Al
0.166667 0.898316 0.623541 Al
0.333334 0.731645 0.623313 Al
0.666668 0.508701 0.670042 Al
0.000000 0.508701 0.670042 Al
0.833335 0.675367 0.670273 Al
0.166667 0.675367 0.670273 Al
0.500001 0.675367 0.670273 Al
0.333334 0.508701 0.670042 Al
0.666668 0.842035 0.670501 Al
0.000000 0.842035 0.670501 Al
0.333334 0.842035 0.670501 Al
0.500001 0.008701 0.669351 Al
0.833335 0.008701 0.669351 Al
0.166667 0.008701 0.669351 Al
0.666668 0.175368 0.669582 Al
0.000000 0.175368 0.669582 Al
0.833335 0.342034 0.669810 Al
0.166667 0.342034 0.669810 Al
0.500001 0.342034 0.669810 Al
0.333334 0.175368 0.669582 Al
0.666668 0.839857 0.811611 Al
0.000000 0.839857 0.811611 Al
0.333334 0.839857 0.811611 Al
0.833335 0.673192 0.811381 Al
0.166667 0.673192 0.811381 Al
0.500001 0.673192 0.811381 Al
0.666668 0.396140 0.763960 Al
0.000000 0.396140 0.763960 Al
0.833335 0.562806 0.764191 Al
0.166667 0.562806 0.764191 Al
0.500001 0.562806 0.764191 Al
0.333334 0.396140 0.763960 Al
0.500001 0.006526 0.810459 Al
0.500001 0.896138 0.764651 Al
0.666668 0.173192 0.810692 Al
0.000000 0.173192 0.810692 Al
0.666668 0.729473 0.764421 Al
0.000000 0.729473 0.764421 Al
0.833335 0.006526 0.810459 Al
0.833335 0.896138 0.764651 Al
0.166667 0.006526 0.810459 Al
0.166667 0.896138 0.764651 Al
0.333334 0.173192 0.810692 Al
0.333334 0.729473 0.764421 Al
0.833335 0.339859 0.810920 Al
0.166667 0.339859 0.810920 Al
0.666668 0.506525 0.811150 Al
0.000000 0.506525 0.811150 Al
0.500001 0.339859 0.810920 Al
0.333334 0.506525 0.811150 Al
0.666668 0.619087 0.717231 Al
0.000000 0.619087 0.717231 Al
0.833335 0.785754 0.717461 Al
0.166667 0.785754 0.717461 Al
0.500001 0.785754 0.717461 Al
0.333334 0.619087 0.717231 Al
0.333334 0.062807 0.763499 Al
0.333334 0.952419 0.717692 Al
0.000000 0.062807 0.763499 Al
0.000000 0.952419 0.717692 Al
0.666668 0.062807 0.763499 Al
0.666668 0.952419 0.717692 Al
0.833335 0.229473 0.763730 Al
0.166667 0.229473 0.763730 Al
0.500001 0.229473 0.763730 Al
0.833335 0.119087 0.716541 Al
0.166667 0.119087 0.716541 Al
0.500001 0.119087 0.716541 Al
0.833335 0.452420 0.717000 Al
0.166667 0.452420 0.717000 Al
0.666668 0.285754 0.716772 Al
0.000000 0.285754 0.716772 Al
0.500001 0.452420 0.717000 Al
0.333334 0.285754 0.716772 Al
0.360521 0.717691 0.090240 O
0.166667 0.884356 0.090240 O
0.513593 0.897953 0.090240 O
0.860521 0.217691 0.090240 O
0.013594 0.397951 0.090240 O
0.666667 0.384358 0.090240 O
0.013594 0.731282 0.090240 O
0.666667 0.717691 0.090240 O
0.860521 0.551024 0.090240 O
0.013594 0.064618 0.090240 O
0.666667 0.051025 0.090240 O
0.860521 0.884356 0.090240 O
0.166667 0.551024 0.090240 O
0.513593 0.564618 0.090240 O
0.360521 0.384357 0.090240 O
0.166667 0.217691 0.090240 O
0.513593 0.231285 0.090240 O
0.360521 0.051024 0.090240 O
0.027187 0.615642 0.134336 O
0.833334 0.448976 0.134336 O
0.180261 0.435382 0.134336 O
0.680261 0.602049 0.134336 O
0.333334 0.615642 0.134336 O
0.527187 0.782309 0.134336 O
0.027187 0.948973 0.134336 O
0.833334 0.782309 0.134336 O
0.180261 0.768718 0.134336 O
0.527187 0.115642 0.134336 O
0.680261 0.935382 0.134336 O
0.333334 0.948973 0.134336 O
0.027187 0.282309 0.134336 O
0.180261 0.102049 0.134336 O
0.833334 0.115642 0.134336 O
0.333334 0.282309 0.134336 O
0.680261 0.268715 0.134336 O
0.527187 0.448976 0.134336 O
0.693854 0.282309 0.310717 O
0.846928 0.102049 0.310717 O
0.500000 0.115643 0.310717 O
0.693854 0.948973 0.310717 O
0.846928 0.768718 0.310717 O
0.500000 0.782309 0.310717 O
0.693854 0.615642 0.310717 O
0.846928 0.435382 0.310717 O
0.500000 0.448976 0.310717 O
0.000000 0.282309 0.310717 O
0.346928 0.268715 0.310717 O
0.193854 0.448976 0.310717 O
0.193854 0.115642 0.310717 O
0.000000 0.948973 0.310717 O
0.346928 0.935382 0.310717 O
0.000000 0.615642 0.310717 O
0.346928 0.602048 0.310717 O
0.193854 0.782309 0.310717 O
0.360521 0.948973 0.222527 O
0.166667 0.782309 0.222527 O
0.513593 0.768718 0.222527 O
0.360521 0.615642 0.222527 O
0.166667 0.448976 0.222527 O
0.513593 0.435382 0.222527 O
0.666667 0.282309 0.222527 O
0.013594 0.268715 0.222527 O
0.860521 0.448976 0.222527 O
0.013594 0.935382 0.222527 O
0.666667 0.948973 0.222527 O
0.860521 0.115643 0.222527 O
0.860521 0.782309 0.222527 O
0.666667 0.615642 0.222527 O
0.013594 0.602048 0.222527 O
0.360521 0.282309 0.222527 O
0.513593 0.102049 0.222527 O
0.166667 0.115642 0.222527 O
0.680261 0.064618 0.266621 O
0.333334 0.051025 0.266621 O
0.527187 0.884356 0.266621 O
0.027187 0.384358 0.266621 O
0.833334 0.551024 0.266621 O
0.180261 0.564618 0.266621 O
0.027187 0.051025 0.266621 O
0.833334 0.217691 0.266621 O
0.180261 0.231285 0.266621 O
0.527187 0.217691 0.266621 O
0.680261 0.397951 0.266621 O
0.333334 0.384358 0.266621 O
0.027187 0.717691 0.266621 O
0.833334 0.884356 0.266621 O
0.180261 0.897953 0.266621 O
0.527187 0.551024 0.266621 O
0.680261 0.731282 0.266621 O
0.333334 0.717691 0.266621 O
0.693854 0.717691 0.178431 O
0.846928 0.897953 0.178431 O
0.000000 0.717691 0.178431 O
0.193854 0.884356 0.178431 O
0.500000 0.551024 0.178431 O
0.693854 0.384358 0.178431 O
0.846928 0.564618 0.178431 O
0.193854 0.551024 0.178431 O
0.346928 0.731282 0.178431 O
0.500000 0.217691 0.178431 O
0.693854 0.051025 0.178431 O
0.846928 0.231285 0.178431 O
0.193854 0.217691 0.178431 O
0.346928 0.397951 0.178431 O
0.346928 0.064618 0.178431 O
0.500000 0.884356 0.178431 O
0.000000 0.051024 0.178431 O
0.000000 0.384357 0.178431 O
0.403294 0.653968 0.426528 O
0.502909 0.715376 0.431609 O
0.765108 0.101441 0.404861 O
0.669021 0.941917 0.396105 O
0.513593 0.231285 0.354813 O
0.360521 0.384358 0.354813 O
0.666667 0.384358 0.354813 O
0.513593 0.564618 0.354813 O
0.360521 0.717691 0.354813 O
0.666667 0.717691 0.354813 O
0.166667 0.884356 0.354813 O
0.860521 0.884356 0.354813 O
0.013594 0.731282 0.354813 O
0.333670 0.292820 0.397538 O
0.890169 0.434749 0.406755 O
0.002613 0.421553 0.423490 O
0.013594 0.397951 0.354813 O
0.166667 0.551025 0.354813 O
0.860521 0.551025 0.354813 O
0.166667 0.217691 0.354813 O
0.860521 0.217691 0.354813 O
0.013594 0.064618 0.354813 O
0.513593 0.897953 0.354813 O
0.360521 0.051025 0.354813 O
0.666667 0.051025 0.354813 O
0.041044 0.283640 0.394492 O
0.658219 0.271715 0.399545 O
0.170625 0.428757 0.391663 O
