Ti6 O9
1.0
18.000000 0.000000 0.000000
0.000000 18.000000 0.000000
0.000000 0.000000 18.000000
Ti O
6 9
Selective dynamics
direct
0.583012 0.368602 0.520360 F F F Ti
0.525030 0.486563 0.642109 F F F Ti
0.441806 0.571393 0.539277 F F F Ti
0.593091 0.468051 0.357891 F F F Ti
0.577829 0.370561 0.440027 F F F Ti
0.509305 0.602007 0.405190 F F F Ti
0.565385 0.551343 0.472009 F F F O
0.376623 0.475360 0.409016 F F F O
0.640434 0.473463 0.511471 F F F O
0.589002 0.611703 0.562910 F F F O
0.399425 0.599475 0.374392 F F F O
0.359566 0.500777 0.499971 F F F O
0.398611 0.630556 0.485199 F F F O
0.601710 0.631398 0.394085 F F F O
0.508600 0.615207 0.501478 F F F O
