Ti6 O9
1.0
18.000000 0.000000 0.000000
0.000000 18.000000 0.000000
0.000000 0.000000 18.000000
Ti O
6 9
direct
0.564761 0.410425 0.462253 Ti
0.606594 0.562067 0.405804 Ti
0.494354 0.674806 0.393781 Ti
0.648689 0.363224 0.579789 Ti
0.531610 0.455744 0.609978 Ti
0.472244 0.548325 0.498234 Ti
0.321817 0.445734 0.478506 O
0.524660 0.495623 0.416726 O
0.437136 0.626950 0.336866 O
0.430123 0.641433 0.472427 O
0.565528 0.619033 0.333716 O
0.556467 0.622656 0.473148 O
0.378639 0.491841 0.515622 O
0.615561 0.446410 0.546387 O
0.521258 0.552188 0.592144 O
