Ti7 O11
1.0
18.000000 0.000000 0.000000
0.000000 18.000000 0.000000
0.000000 0.000000 18.000000
Ti O
7 11
direct
0.439628 0.460091 0.423238 Ti
0.584383 0.463938 0.465017 Ti
0.716689 0.410529 0.410623 Ti
0.484994 0.625889 0.432936 Ti
0.452077 0.469579 0.592033 Ti
0.344055 0.554829 0.516828 Ti
0.577639 0.566456 0.577817 Ti
0.533657 0.410937 0.389933 O
0.664172 0.490666 0.393641 O
0.652417 0.382205 0.479598 O
0.396721 0.563328 0.423204 O
0.447045 0.665022 0.356596 O
0.516946 0.536998 0.387937 O
0.371337 0.455287 0.516926 O
0.489882 0.409502 0.509791 O
0.572367 0.471513 0.585728 O
0.398165 0.563028 0.601472 O
0.487490 0.537188 0.512271 O
