Ti6 O9
1.0
18.000000 0.000000 0.000000
0.000000 18.000000 0.000000
0.000000 0.000000 18.000000
Ti O
6 9
direct
0.453228 0.496405 0.360113 Ti
0.396861 0.438526 0.498316 Ti
0.429679 0.591839 0.497672 Ti
0.567483 0.630133 0.413846 Ti
0.554643 0.495857 0.516011 Ti
0.577039 0.658306 0.556967 Ti
0.372024 0.461749 0.383846 O
0.358016 0.358992 0.458463 O
0.343456 0.537391 0.499153 O
0.620433 0.591467 0.492632 O
0.510868 0.680444 0.482334 O
0.357016 0.416945 0.582756 O
0.497952 0.403979 0.511357 O
0.594872 0.480888 0.599422 O
0.460753 0.519874 0.560261 O
