Ti7 O11
1.0
18.000000 0.000000 0.000000
0.000000 18.000000 0.000000
0.000000 0.000000 18.000000
Ti O
7 11
direct
0.383985 0.490358 0.360549 Ti
0.545427 0.466150 0.339292 Ti
0.483554 0.602633 0.378391 Ti
0.499427 0.409083 0.606028 Ti
0.497096 0.583067 0.656894 Ti
0.433340 0.526433 0.522912 Ti
0.494854 0.675994 0.528329 Ti
0.396435 0.582161 0.327981 O
0.545032 0.553304 0.300217 O
0.473194 0.499005 0.413571 O
0.424343 0.631056 0.471798 O
0.517002 0.325518 0.566072 O
0.418141 0.421337 0.544542 O
0.542352 0.464083 0.525639 O
0.430979 0.511677 0.633878 O
0.340186 0.551763 0.527637 O
0.529449 0.586256 0.560294 O
0.614606 0.509113 0.504312 O
