Ti7 O11
1.0
18.000000 0.000000 0.000000
0.000000 18.000000 0.000000
0.000000 0.000000 18.000000
Ti O
7 11
direct
0.459606 0.571055 0.363548 Ti
0.496448 0.649625 0.572496 Ti
0.469502 0.610447 0.647232 Ti
0.471927 0.426192 0.327805 Ti
0.506736 0.394633 0.608579 Ti
0.419342 0.483188 0.324180 Ti
0.449787 0.546614 0.540804 Ti
0.375054 0.463009 0.611976 O
0.378604 0.408634 0.517385 O
0.559016 0.535946 0.331026 O
0.339463 0.597865 0.517066 O
0.555139 0.519279 0.505777 O
0.485529 0.435460 0.442752 O
0.569757 0.357199 0.515299 O
0.534421 0.600844 0.566477 O
0.440949 0.675378 0.467224 O
0.627681 0.528899 0.479479 O
0.430441 0.584720 0.429238 O
