Ti7 O11
1.0
18.000000 0.000000 0.000000
0.000000 18.000000 0.000000
0.000000 0.000000 18.000000
Ti O
7 11
Selective dynamics
direct
0.418135 0.467824 0.439347 F F F Ti
0.618569 0.444738 0.377554 F F F Ti
0.569223 0.557147 0.497229 F F F Ti
0.621578 0.447544 0.488662 F F F Ti
0.501970 0.545774 0.578259 F F F Ti
0.459403 0.371374 0.578020 F F F Ti
0.616008 0.427804 0.590384 F F F Ti
0.330503 0.424384 0.486659 F F F O
0.451674 0.364001 0.466128 F F F O
0.399235 0.473752 0.345695 F F F O
0.582670 0.621722 0.407423 F F F O
0.535165 0.459089 0.438949 F F F O
0.668525 0.508894 0.436997 F F F O
0.527897 0.650235 0.566972 F F F O
0.383992 0.412064 0.618675 F F F O
0.522226 0.447414 0.639375 F F F O
0.602703 0.531979 0.552784 F F F O
0.573925 0.335487 0.555083 F F F O
