Ti7 O11
1.0
18.000000 0.000000 0.000000
0.000000 18.000000 0.000000
0.000000 0.000000 18.000000
Ti O
7 11
direct
0.437041 0.403950 0.406898 Ti
0.593106 0.493442 0.349256 Ti
0.597567 0.442042 0.493024 Ti
0.570900 0.606444 0.452040 Ti
0.442776 0.406742 0.562917 Ti
0.579783 0.408168 0.646272 Ti
0.537245 0.551199 0.596206 Ti
0.448621 0.335924 0.481578 O
0.346022 0.387520 0.387493 O
0.409598 0.467889 0.483472 O
0.524825 0.491223 0.424479 O
0.646811 0.528946 0.426518 O
0.626533 0.669506 0.408504 O
0.370986 0.357437 0.602206 O
0.490888 0.460606 0.651472 O
0.547935 0.364708 0.556606 O
0.616739 0.490335 0.585856 O
0.596022 0.625139 0.549397 O
