Ti7 O11
1.0
18.000000 0.000000 0.000000
0.000000 18.000000 0.000000
0.000000 0.000000 18.000000
Ti O
7 11
direct
0.412791 0.462446 0.479549 Ti
0.568956 0.453267 0.418474 Ti
0.376003 0.528717 0.347727 Ti
0.507182 0.595267 0.414206 Ti
0.512303 0.444947 0.600856 Ti
0.429965 0.587511 0.575739 Ti
0.601889 0.564922 0.546413 Ti
0.346076 0.447694 0.394963 O
0.511159 0.404988 0.491245 O
0.483461 0.501964 0.372708 O
0.402504 0.577017 0.442292 O
0.608194 0.550809 0.440137 O
0.413337 0.406566 0.572889 O
0.616894 0.477492 0.591794 O
0.355948 0.523772 0.548532 O
0.458233 0.523243 0.651517 O
0.502429 0.535316 0.509982 O
0.525923 0.376713 0.667072 O
