Ti7 O9
1.0
18.000000 0.000000 0.000000
0.000000 18.000000 0.000000
0.000000 0.000000 18.000000
Ti O
7 9
Selective dynamics
direct
0.470547 0.449847 0.432945 F F F Ti
0.609145 0.376300 0.403115 F F F Ti
0.456865 0.610606 0.467389 F F F Ti
0.605127 0.516852 0.482589 F F F Ti
0.535505 0.412782 0.554483 F F F Ti
0.463549 0.491548 0.673936 F F F Ti
0.520060 0.570143 0.546222 F F F Ti
0.531063 0.413624 0.350382 F F F O
0.388785 0.526355 0.466783 F F F O
0.555159 0.412600 0.490667 F F F O
0.523588 0.537839 0.413101 F F F O
0.663045 0.461199 0.407296 F F F O
0.541220 0.427401 0.661560 F F F O
0.451331 0.481640 0.565102 F F F O
0.600498 0.495006 0.553409 F F F O
0.518107 0.574124 0.655888 F F F O
