Ti7 O11
1.0
18.000000 0.000000 0.000000
0.000000 18.000000 0.000000
0.000000 0.000000 18.000000
Ti O
7 11
direct
0.417988 0.505425 0.311229 Ti
0.424574 0.438622 0.448115 Ti
0.569900 0.481345 0.373903 Ti
0.473530 0.600522 0.440646 Ti
0.433526 0.584706 0.600117 Ti
0.571300 0.501239 0.541427 Ti
0.538966 0.524434 0.697128 Ti
0.402803 0.414434 0.344453 O
0.660833 0.459591 0.387036 O
0.537006 0.424887 0.456642 O
0.392170 0.536993 0.404589 O
0.572489 0.563211 0.439555 O
0.354358 0.400679 0.500966 O
0.641256 0.434476 0.535976 O
0.550318 0.448811 0.637483 O
0.458378 0.528576 0.515481 O
0.532071 0.591400 0.619844 O
0.636900 0.571433 0.549589 O
