Ti7 O11
1.0
18.000000 0.000000 0.000000
0.000000 18.000000 0.000000
0.000000 0.000000 18.000000
Ti O
7 11
Selective dynamics
direct
0.415387 0.502921 0.311078 F F F Ti
0.427655 0.444746 0.443827 F F F Ti
0.562947 0.485907 0.366687 F F F Ti
0.475177 0.607327 0.436712 F F F Ti
0.573402 0.503256 0.548473 F F F Ti
0.424330 0.582111 0.605299 F F F Ti
0.541068 0.525571 0.686651 F F F Ti
0.406257 0.418139 0.350709 F F F O
0.649175 0.451582 0.389197 F F F O
0.539296 0.430173 0.459779 F F F O
0.399366 0.538025 0.399028 F F F O
0.576931 0.555082 0.446992 F F F O
0.359962 0.389493 0.502485 F F F O
0.649674 0.427978 0.539059 F F F O
0.551762 0.449020 0.626039 F F F O
0.449693 0.532363 0.516913 F F F O
0.536685 0.597270 0.619884 F F F O
0.629594 0.569814 0.555363 F F F O
