Ti7 O11
1.0
18.000000 0.000000 0.000000
0.000000 18.000000 0.000000
0.000000 0.000000 18.000000
Ti O
7 11
direct
0.410496 0.473446 0.352293 Ti
0.495854 0.565982 0.583412 Ti
0.461636 0.383395 0.410662 Ti
0.590515 0.480354 0.402743 Ti
0.487767 0.552431 0.666470 Ti
0.656627 0.457415 0.578028 Ti
0.612968 0.532744 0.564999 Ti
0.569419 0.557189 0.496621 O
0.514576 0.582229 0.400886 O
0.490325 0.511932 0.602919 O
0.434795 0.372564 0.412811 O
0.618814 0.460325 0.605338 O
0.489178 0.499727 0.316058 O
0.607826 0.385487 0.406108 O
0.453035 0.476972 0.382595 O
0.481879 0.674165 0.512701 O
0.664753 0.492440 0.537991 O
0.382520 0.540747 0.450702 O
