Ti7 O11
1.0
18.000000 0.000000 0.000000
0.000000 18.000000 0.000000
0.000000 0.000000 18.000000
Ti O
7 11
direct
0.330471 0.481613 0.476656 Ti
0.474962 0.422001 0.446932 Ti
0.622483 0.433536 0.410362 Ti
0.599789 0.577167 0.466364 Ti
0.575583 0.393786 0.579533 Ti
0.456300 0.513116 0.571311 Ti
0.602350 0.544556 0.623528 Ti
0.371090 0.392505 0.448184 O
0.532480 0.392974 0.359616 O
0.572372 0.362267 0.476711 O
0.427777 0.520745 0.465312 O
0.551939 0.513166 0.397319 O
0.677656 0.513970 0.460198 O
0.353414 0.474301 0.574856 O
0.472907 0.403317 0.558811 O
0.533379 0.473550 0.647911 O
0.565633 0.482029 0.520203 O
0.538722 0.598056 0.565756 O
