Ti7 O11
1.0
18.000000 0.000000 0.000000
0.000000 18.000000 0.000000
0.000000 0.000000 18.000000
Ti O
7 11
Selective dynamics
direct
0.583479 0.517261 0.617957 F F F Ti
0.478324 0.414488 0.447908 F F F Ti
0.657844 0.553619 0.550504 F F F Ti
0.473952 0.529594 0.580364 F F F Ti
0.637378 0.450555 0.433291 F F F Ti
0.583650 0.404205 0.589706 F F F Ti
0.342575 0.489071 0.475650 F F F Ti
0.559267 0.488963 0.502501 F F F O
0.547663 0.373521 0.373132 F F F O
0.483481 0.441395 0.621667 F F F O
0.612552 0.539005 0.367696 F F F O
0.453103 0.516487 0.472741 F F F O
0.334763 0.487742 0.568708 F F F O
0.374061 0.393339 0.467501 F F F O
0.547826 0.608375 0.545360 F F F O
0.573994 0.376460 0.486979 F F F O
0.477394 0.408778 0.559211 F F F O
0.538001 0.499795 0.388684 F F F O
