Ti7 O10
1.0
18.000000 0.000000 0.000000
0.000000 18.000000 0.000000
0.000000 0.000000 18.000000
Ti O
7 10
direct
0.392647 0.470424 0.382977 Ti
0.542217 0.380333 0.440993 Ti
0.455202 0.603339 0.494627 Ti
0.568639 0.517600 0.366318 Ti
0.466077 0.463726 0.560111 Ti
0.336039 0.576167 0.586861 Ti
0.601406 0.538129 0.513658 Ti
0.353389 0.405388 0.428754 O
0.485464 0.495806 0.451803 O
0.617628 0.453129 0.430666 O
0.617767 0.587383 0.414164 O
0.559639 0.478229 0.594178 O
0.589122 0.340130 0.509548 O
0.439106 0.562378 0.592461 O
0.355366 0.646983 0.525272 O
0.547402 0.628672 0.532182 O
0.687550 0.561444 0.547091 O
