Ti7 O10
1.0
18.000000 0.000000 0.000000
0.000000 18.000000 0.000000
0.000000 0.000000 18.000000
Ti O
7 10
Selective dynamics
direct
0.585969 0.573667 0.517807 F F F Ti
0.523627 0.524385 0.365992 F F F Ti
0.415828 0.483506 0.555035 F F F Ti
0.450396 0.487330 0.370260 F F F Ti
0.346899 0.505718 0.577084 F F F Ti
0.477698 0.667200 0.482708 F F F Ti
0.462593 0.332800 0.468862 F F F Ti
0.473302 0.525336 0.592977 F F F O
0.371820 0.462191 0.409537 F F F O
0.566244 0.451032 0.509095 F F F O
0.600667 0.518397 0.454991 F F F O
0.558266 0.423859 0.634008 F F F O
0.549345 0.642095 0.490508 F F F O
0.375019 0.641127 0.512359 F F F O
0.653101 0.529755 0.535617 F F F O
0.618237 0.379287 0.502078 F F F O
0.585649 0.561577 0.392741 F F F O
