Ti6 O9
1.0
18.000000 0.000000 0.000000
0.000000 18.000000 0.000000
0.000000 0.000000 18.000000
Ti O
6 9
direct
0.317509 0.459030 0.477761 Ti
0.439658 0.338812 0.493264 Ti
0.606022 0.392462 0.477485 Ti
0.441593 0.593706 0.451887 Ti
0.615767 0.554415 0.473911 Ti
0.472925 0.479048 0.550207 Ti
0.343138 0.453259 0.389269 O
0.494507 0.419035 0.464808 O
0.591311 0.396341 0.384636 O
0.675983 0.467388 0.456956 O
0.385133 0.401302 0.549393 O
0.586228 0.478992 0.547010 O
0.383946 0.538993 0.515692 O
0.513257 0.581306 0.521089 O
0.672456 0.596350 0.534743 O
