Ti6 O9
1.0
18.000000 0.000000 0.000000
0.000000 18.000000 0.000000
0.000000 0.000000 18.000000
Ti O
6 9
direct
0.588723 0.386140 0.553417 Ti
0.319518 0.515355 0.437718 Ti
0.645037 0.601514 0.491533 Ti
0.465762 0.348590 0.565215 Ti
0.410561 0.628351 0.503015 Ti
0.503633 0.443055 0.548475 Ti
0.394954 0.443706 0.367455 O
0.355415 0.377079 0.478615 O
0.485575 0.440295 0.481403 O
0.636927 0.491064 0.391730 O
0.398091 0.535062 0.521133 O
0.610813 0.416326 0.411526 O
0.667076 0.565844 0.449452 O
0.486043 0.503389 0.542681 O
0.571299 0.454672 0.544745 O
