Ti7 O11
1.0
18.000000 0.000000 0.000000
0.000000 18.000000 0.000000
0.000000 0.000000 18.000000
Ti O
7 11
direct
0.553830 0.461695 0.397746 Ti
0.375819 0.626412 0.426190 Ti
0.667240 0.533573 0.475892 Ti
0.533536 0.622423 0.464807 Ti
0.389883 0.552163 0.622289 Ti
0.532428 0.485556 0.602353 Ti
0.516819 0.587937 0.333558 Ti
0.386590 0.417115 0.457967 O
0.540335 0.373588 0.454168 O
0.653887 0.453875 0.406333 O
0.385278 0.533114 0.404424 O
0.597813 0.568410 0.398504 O
0.537796 0.513829 0.498279 O
0.421320 0.453119 0.611521 O
0.608908 0.341744 0.518982 O
0.468330 0.559053 0.553835 O
0.577927 0.577440 0.616897 O
0.632576 0.441901 0.590913 O
