Ti6 O9
1.0
18.000000 0.000000 0.000000
0.000000 18.000000 0.000000
0.000000 0.000000 18.000000
Ti O
6 9
Selective dynamics
direct
0.421791 0.492521 0.488430 F F F Ti
0.468403 0.566985 0.351960 F F F Ti
0.589436 0.549577 0.492311 F F F Ti
0.402255 0.533442 0.571242 F F F Ti
0.567638 0.463723 0.575258 F F F Ti
0.536252 0.626968 0.590379 F F F Ti
0.400261 0.499033 0.381755 F F F O
0.441793 0.386554 0.472660 F F F O
0.336201 0.559679 0.493595 F F F O
0.589113 0.495252 0.431652 F F F O
0.675037 0.519031 0.488316 F F F O
0.514120 0.394796 0.612409 F F F O
0.500335 0.536360 0.635985 F F F O
0.432692 0.631275 0.549151 F F F O
0.621964 0.571602 0.556795 F F F O
