Ti7 O11
1.0
18.000000 0.000000 0.000000
0.000000 18.000000 0.000000
0.000000 0.000000 18.000000
Ti O
7 11
Selective dynamics
direct
0.473688 0.417556 0.441597 F F F Ti
0.639253 0.451717 0.448680 F F F Ti
0.334151 0.508822 0.464963 F F F Ti
0.538574 0.575454 0.416068 F F F Ti
0.576316 0.405495 0.593725 F F F Ti
0.471550 0.518697 0.567654 F F F Ti
0.623598 0.568232 0.569653 F F F Ti
0.373683 0.399390 0.450056 F F F O
0.590931 0.365510 0.479354 F F F O
0.543418 0.475852 0.377610 F F F O
0.454734 0.530512 0.457427 F F F O
0.648626 0.571891 0.450819 F F F O
0.461705 0.419842 0.562644 F F F O
0.549812 0.497483 0.508097 F F F O
0.667553 0.451708 0.541316 F F F O
0.354980 0.506682 0.579105 F F F O
0.561860 0.495484 0.627502 F F F O
0.543210 0.605992 0.525139 F F F O
