Ti7 O11
1.0
18.000000 0.000000 0.000000
0.000000 18.000000 0.000000
0.000000 0.000000 18.000000
Ti O
7 11
direct
0.553607 0.450015 0.412894 Ti
0.394127 0.634661 0.402878 Ti
0.665844 0.518277 0.495829 Ti
0.545372 0.618728 0.459911 Ti
0.527888 0.417877 0.567217 Ti
0.407873 0.510057 0.501776 Ti
0.567856 0.566700 0.607644 Ti
0.376914 0.430560 0.457442 O
0.524048 0.371027 0.476263 O
0.650606 0.432818 0.433917 O
0.394817 0.538982 0.392262 O
0.437461 0.625528 0.493909 O
0.609467 0.550886 0.407620 O
0.431302 0.446657 0.587183 O
0.622506 0.481763 0.590044 O
0.323741 0.534802 0.539395 O
0.619061 0.618856 0.535511 O
0.533351 0.514959 0.504840 O
