Ti7 O11
1.0
18.000000 0.000000 0.000000
0.000000 18.000000 0.000000
0.000000 0.000000 18.000000
Ti O
7 11
direct
0.347869 0.509912 0.502109 Ti
0.617056 0.422300 0.400234 Ti
0.634972 0.599426 0.495937 Ti
0.537599 0.396498 0.577643 Ti
0.404181 0.604205 0.372831 Ti
0.603156 0.612734 0.580467 Ti
0.533690 0.658256 0.550642 Ti
0.404948 0.575378 0.369744 O
0.336202 0.445626 0.473166 O
0.609828 0.455844 0.547104 O
0.668523 0.447384 0.503152 O
0.368829 0.425164 0.560397 O
0.466422 0.496843 0.525436 O
0.610127 0.503439 0.366917 O
0.552059 0.332441 0.474825 O
0.497585 0.613786 0.485578 O
0.607225 0.608596 0.496553 O
0.385573 0.555313 0.583801 O
