Al95 O49                                
   1.00000000000000     
     8.4283000000000001    0.0000000000000000    0.0000000000000000
     0.0000000000000000   14.5982000000000003    0.0000000000000000
     0.0000000000000000    0.0000000000000000   16.5832100000000011
   Al   O 
    95    49
Selective dynamics
Direct
  0.8333349999999982  0.6775430000000000  0.7893079999999983   F   F   F
  0.0000000000000000  0.8442069999999973  0.7899940000000001   F   F   F
  0.1666669999999968  0.6775430000000000  0.7893079999999983   F   F   F
  0.6666680000000014  0.8442069999999973  0.7899940000000001   F   F   F
  0.5000009999999975  0.6775430000000000  0.7893079999999983   F   F   F
  0.3333340000000007  0.8442069999999973  0.7899940000000001   F   F   F
  0.6802610000000016  0.8333360000000027  0.0866029999999967   F   F   F
  0.0135939999999977  0.8333360000000027  0.1885440000000003   F   F   F
  0.1802589999999995  0.0000000000000000  0.0866029999999967   F   F   F
  0.5135930000000002  0.0000000000000000  0.1885440000000003   F   F   F
  0.6802610000000016  0.1666669999999968  0.0866029999999967   F   F   F
  0.1802589999999995  0.3333330000000032  0.0866029999999967   F   F   F
  0.5135930000000002  0.3333330000000032  0.1885440000000003   F   F   F
  0.0135939999999977  0.1666669999999968  0.1885440000000003   F   F   F
  0.6802610000000016  0.5000000000000000  0.0866029999999967   F   F   F
  0.1802589999999995  0.6666659999999993  0.0866029999999967   F   F   F
  0.5135930000000002  0.6666659999999993  0.1885440000000003   F   F   F
  0.0135939999999977  0.5000000000000000  0.1885440000000003   F   F   F
  0.0135939999999977  0.1666669999999968  0.3267669999999967   F   F   F
  0.8469279999999983  0.3333330000000032  0.2181590000000000   F   F   F
  0.5135930000000002  0.6666659999999993  0.3267669999999967   F   F   F
  0.3469279999999983  0.5000000000000000  0.2181590000000000   F   F   F
  0.0135939999999977  0.5000000000000000  0.3267669999999967   F   F   F
  0.5135930000000002  0.0000000000000000  0.3267669999999967   F   F   F
  0.5135930000000002  0.3333330000000032  0.3267669999999967   F   F   F
  0.0135939999999977  0.8333360000000027  0.3267669999999967   F   F   F
  0.6615762623806913  0.1637015136459294  0.4464603604817888   T   T   T
  0.5007272085334343  0.3420560325235724  0.4966904258482012   T   T   T
  0.6739671802928588  0.4905393312667697  0.4521527488330132   T   T   T
  0.5761859861888646  0.9264385102492557  0.4759988769254504   T   T   T
  0.5181558548593977  0.6738914918561174  0.5055674003561503   T   T   T
  0.3469279999999983  0.5000000000000000  0.3563869999999980   F   F   F
  0.3469279999999983  0.8333360000000027  0.3563869999999980   F   F   F
  0.3469279999999983  0.1666669999999968  0.3563869999999980   F   F   F
  0.8469279999999983  0.6666669999999968  0.3563869999999980   F   F   F
  0.8469279999999983  0.6666669999999968  0.2181590000000000   F   F   F
  0.3469279999999983  0.8333360000000027  0.2181590000000000   F   F   F
  0.3469279999999983  0.1666669999999968  0.2181590000000000   F   F   F
  0.8469279999999983  0.0000000000000000  0.2181590000000000   F   F   F
  0.8469279999999983  0.3333330000000032  0.3563869999999980   F   F   F
  0.3469279999999983  0.8333360000000027  0.0569830000000024   F   F   F
  0.3469279999999983  0.1666669999999968  0.0569830000000024   F   F   F
  0.3469279999999983  0.5000000000000000  0.0569830000000024   F   F   F
  0.8469279999999983  0.3333330000000032  0.0569830000000024   F   F   F
  0.8469279999999983  0.6666669999999968  0.0569830000000024   F   F   F
  0.8469279999999983  0.0000000000000000  0.0569830000000024   F   F   F
  0.8469279999999983  0.0000000000000000  0.3563869999999980   F   F   F
  0.0000000000000000  0.0671570000000017  0.6464509999999990   F   F   F
  0.5000009999999975  0.2338239999999985  0.6471459999999993   F   F   F
  0.0000000000000000  0.4004899999999978  0.6478260000000020   F   F   F
  0.5000009999999975  0.5671570000000017  0.6485119999999966   F   F   F
  0.0000000000000000  0.7338230000000010  0.6492020000000025   F   F   F
  0.5000009999999975  0.9004880000000028  0.6498890000000017   F   F   F
  0.6666680000000014  0.0671570000000017  0.6464509999999990   F   F   F
  0.1666669999999968  0.2338239999999985  0.6471459999999993   F   F   F
  0.6666680000000014  0.4004899999999978  0.6478260000000020   F   F   F
  0.1666669999999968  0.5671570000000017  0.6485119999999966   F   F   F
  0.6666680000000014  0.7338230000000010  0.6492020000000025   F   F   F
  0.1666669999999968  0.9004880000000028  0.6498890000000017   F   F   F
  0.3333340000000007  0.0671570000000017  0.6464509999999990   F   F   F
  0.8333349999999982  0.2338239999999985  0.6471459999999993   F   F   F
  0.0000000000000000  0.9545969999999997  0.9307799999999986   F   F   F
  0.3333340000000007  0.4004899999999978  0.6478260000000020   F   F   F
  0.8333349999999982  0.5671570000000017  0.6485119999999966   F   F   F
  0.5000009999999975  0.7879259999999988  0.9301000000000030   F   F   F
  0.3333340000000007  0.7338230000000010  0.6492020000000025   F   F   F
  0.0000000000000000  0.6212620000000015  0.9294140000000013   F   F   F
  0.8333349999999982  0.9004880000000028  0.6498890000000017   F   F   F
  0.5000009999999975  0.4545949999999976  0.9287250000000000   F   F   F
  0.0000000000000000  0.2879289999999983  0.9280389999999983   F   F   F
  0.5000009999999975  0.1212620000000015  0.9273499999999970   F   F   F
  0.6666680000000014  0.9545969999999997  0.9307799999999986   F   F   F
  0.1666669999999968  0.7879259999999988  0.9301000000000030   F   F   F
  0.6666680000000014  0.6212620000000015  0.9294140000000013   F   F   F
  0.1666669999999968  0.4545949999999976  0.9287250000000000   F   F   F
  0.6666680000000014  0.2879289999999983  0.9280389999999983   F   F   F
  0.1666669999999968  0.1212620000000015  0.9273499999999970   F   F   F
  0.3333340000000007  0.9545969999999997  0.9307799999999986   F   F   F
  0.8333349999999982  0.7879259999999988  0.9301000000000030   F   F   F
  0.3333340000000007  0.6212620000000015  0.9294140000000013   F   F   F
  0.8333349999999982  0.4545949999999976  0.9287250000000000   F   F   F
  0.3333340000000007  0.2879289999999983  0.9280389999999983   F   F   F
  0.5000009999999975  0.0108770000000007  0.7865570000000019   F   F   F
  0.8333349999999982  0.0108770000000007  0.7865570000000019   F   F   F
  0.1666669999999968  0.0108770000000007  0.7865570000000019   F   F   F
  0.8333349999999982  0.1212620000000015  0.9273499999999970   F   F   F
  0.6666680000000014  0.1775430000000000  0.7872460000000032   F   F   F
  0.0000000000000000  0.1775430000000000  0.7872460000000032   F   F   F
  0.3333340000000007  0.1775430000000000  0.7872460000000032   F   F   F
  0.8333349999999982  0.3442099999999968  0.7879330000000024   F   F   F
  0.1666669999999968  0.3442099999999968  0.7879330000000024   F   F   F
  0.6666680000000014  0.5108760000000032  0.7886189999999971   F   F   F
  0.0000000000000000  0.5108760000000032  0.7886189999999971   F   F   F
  0.5000009999999975  0.3442099999999968  0.7879330000000024   F   F   F
  0.3333340000000007  0.5108760000000032  0.7886189999999971   F   F   F
  0.6938540000000017  0.9489730000000023  0.1375710000000012   F   F   F
  0.8469279999999983  0.7687179999999998  0.1375710000000012   F   F   F
  0.5000000000000000  0.7823089999999979  0.1375710000000012   F   F   F
  0.0000000000000000  0.9489730000000023  0.1375710000000012   F   F   F
  0.1938540000000017  0.1156420000000011  0.1375710000000012   F   F   F
  0.3469279999999983  0.9353819999999970  0.1375710000000012   F   F   F
  0.6938540000000017  0.2823089999999979  0.1375710000000012   F   F   F
  0.8469279999999983  0.1020490000000009  0.1375710000000012   F   F   F
  0.5000000000000000  0.1156429999999986  0.1375710000000012   F   F   F
  0.0000000000000000  0.2823089999999979  0.1375710000000012   F   F   F
  0.1938540000000017  0.4489760000000018  0.1375710000000012   F   F   F
  0.3469279999999983  0.2687150000000003  0.1375710000000012   F   F   F
  0.6938540000000017  0.6156420000000011  0.1375710000000012   F   F   F
  0.8469279999999983  0.4353819999999970  0.1375710000000012   F   F   F
  0.5000000000000000  0.4489760000000018  0.1375710000000012   F   F   F
  0.0000000000000000  0.6156420000000011  0.1375710000000012   F   F   F
  0.1938540000000017  0.7823089999999979  0.1375710000000012   F   F   F
  0.3469279999999983  0.6020480000000035  0.1375710000000012   F   F   F
  0.8605209999999985  0.2176910000000021  0.2691319999999990   F   F   F
  0.1666669999999968  0.2176910000000021  0.2691319999999990   F   F   F
  0.0135939999999977  0.0646180000000030  0.2691319999999990   F   F   F
  0.5135930000000002  0.5646180000000030  0.2691319999999990   F   F   F
  0.3605209999999985  0.7176910000000021  0.2691319999999990   F   F   F
  0.6666669999999968  0.7176910000000021  0.2691319999999990   F   F   F
  0.0135939999999977  0.3979509999999991  0.2691319999999990   F   F   F
  0.1666669999999968  0.5510250000000028  0.2691319999999990   F   F   F
  0.8605209999999985  0.5510250000000028  0.2691319999999990   F   F   F
  0.5135930000000002  0.8979530000000011  0.2691319999999990   F   F   F
  0.3605209999999985  0.0510250000000028  0.2691319999999990   F   F   F
  0.6666669999999968  0.0510250000000028  0.2691319999999990   F   F   F
  0.5135930000000002  0.2312849999999997  0.2691319999999990   F   F   F
  0.3605209999999985  0.3843579999999989  0.2691319999999990   F   F   F
  0.6666669999999968  0.3843579999999989  0.2691319999999990   F   F   F
  0.1666669999999968  0.8843559999999968  0.2691319999999990   F   F   F
  0.8605209999999985  0.8843559999999968  0.2691319999999990   F   F   F
  0.0135939999999977  0.7312820000000002  0.2691319999999990   F   F   F
  0.5073429999999988  0.0899950000000018  0.4098460000000017   F   F   F
  0.6634609999999981  0.2682780000000022  0.3921100000000024   F   F   F
  0.1855059999999966  0.4295890000000000  0.3955970000000022   F   F   F
  0.4989899999999992  0.4276830000000018  0.4081759999999974   F   F   F
  0.6887202923631321  0.6022735950029636  0.4933953193703804   T   T   T
  0.0534159999999986  0.6373439999999988  0.4024029999999996   F   F   F
  0.2080290000000034  0.9470140000000029  0.4090920000000011   F   F   F
  0.0643499999999975  0.9226620000000025  0.4106280000000027   F   F   F
 -0.0092133804628463  0.9450095957484967  0.5026829876542487   T   T   T
  0.1854799999999983  0.0817979999999991  0.3860549999999989   F   F   F
  0.1657179999999983  0.7722389999999990  0.3840059999999994   F   F   F
  0.8786709999999971  0.7818090000000026  0.4016090000000005   F   F   F
  0.3440009999999987  0.2870410000000021  0.3891739999999970   F   F   F
 
  0.00000000E+00  0.00000000E+00  0.00000000E+00
  0.00000000E+00  0.00000000E+00  0.00000000E+00
  0.00000000E+00  0.00000000E+00  0.00000000E+00
  0.00000000E+00  0.00000000E+00  0.00000000E+00
  0.00000000E+00  0.00000000E+00  0.00000000E+00
  0.00000000E+00  0.00000000E+00  0.00000000E+00
  0.00000000E+00  0.00000000E+00  0.00000000E+00
  0.00000000E+00  0.00000000E+00  0.00000000E+00
  0.00000000E+00  0.00000000E+00  0.00000000E+00
  0.00000000E+00  0.00000000E+00  0.00000000E+00
  0.00000000E+00  0.00000000E+00  0.00000000E+00
  0.00000000E+00  0.00000000E+00  0.00000000E+00
  0.00000000E+00  0.00000000E+00  0.00000000E+00
  0.00000000E+00  0.00000000E+00  0.00000000E+00
  0.00000000E+00  0.00000000E+00  0.00000000E+00
  0.00000000E+00  0.00000000E+00  0.00000000E+00
  0.00000000E+00  0.00000000E+00  0.00000000E+00
  0.00000000E+00  0.00000000E+00  0.00000000E+00
  0.00000000E+00  0.00000000E+00  0.00000000E+00
  0.00000000E+00  0.00000000E+00  0.00000000E+00
  0.00000000E+00  0.00000000E+00  0.00000000E+00
  0.00000000E+00  0.00000000E+00  0.00000000E+00
  0.00000000E+00  0.00000000E+00  0.00000000E+00
  0.00000000E+00  0.00000000E+00  0.00000000E+00
  0.00000000E+00  0.00000000E+00  0.00000000E+00
  0.00000000E+00  0.00000000E+00  0.00000000E+00
  0.00000000E+00  0.00000000E+00  0.00000000E+00
  0.00000000E+00  0.00000000E+00  0.00000000E+00
  0.00000000E+00  0.00000000E+00  0.00000000E+00
  0.00000000E+00  0.00000000E+00  0.00000000E+00
  0.00000000E+00  0.00000000E+00  0.00000000E+00
  0.00000000E+00  0.00000000E+00  0.00000000E+00
  0.00000000E+00  0.00000000E+00  0.00000000E+00
  0.00000000E+00  0.00000000E+00  0.00000000E+00
  0.00000000E+00  0.00000000E+00  0.00000000E+00
  0.00000000E+00  0.00000000E+00  0.00000000E+00
  0.00000000E+00  0.00000000E+00  0.00000000E+00
  0.00000000E+00  0.00000000E+00  0.00000000E+00
  0.00000000E+00  0.00000000E+00  0.00000000E+00
  0.00000000E+00  0.00000000E+00  0.00000000E+00
  0.00000000E+00  0.00000000E+00  0.00000000E+00
  0.00000000E+00  0.00000000E+00  0.00000000E+00
  0.00000000E+00  0.00000000E+00  0.00000000E+00
  0.00000000E+00  0.00000000E+00  0.00000000E+00
  0.00000000E+00  0.00000000E+00  0.00000000E+00
  0.00000000E+00  0.00000000E+00  0.00000000E+00
  0.00000000E+00  0.00000000E+00  0.00000000E+00
  0.00000000E+00  0.00000000E+00  0.00000000E+00
  0.00000000E+00  0.00000000E+00  0.00000000E+00
  0.00000000E+00  0.00000000E+00  0.00000000E+00
  0.00000000E+00  0.00000000E+00  0.00000000E+00
  0.00000000E+00  0.00000000E+00  0.00000000E+00
  0.00000000E+00  0.00000000E+00  0.00000000E+00
  0.00000000E+00  0.00000000E+00  0.00000000E+00
  0.00000000E+00  0.00000000E+00  0.00000000E+00
  0.00000000E+00  0.00000000E+00  0.00000000E+00
  0.00000000E+00  0.00000000E+00  0.00000000E+00
  0.00000000E+00  0.00000000E+00  0.00000000E+00
  0.00000000E+00  0.00000000E+00  0.00000000E+00
  0.00000000E+00  0.00000000E+00  0.00000000E+00
  0.00000000E+00  0.00000000E+00  0.00000000E+00
  0.00000000E+00  0.00000000E+00  0.00000000E+00
  0.00000000E+00  0.00000000E+00  0.00000000E+00
  0.00000000E+00  0.00000000E+00  0.00000000E+00
  0.00000000E+00  0.00000000E+00  0.00000000E+00
  0.00000000E+00  0.00000000E+00  0.00000000E+00
  0.00000000E+00  0.00000000E+00  0.00000000E+00
  0.00000000E+00  0.00000000E+00  0.00000000E+00
  0.00000000E+00  0.00000000E+00  0.00000000E+00
  0.00000000E+00  0.00000000E+00  0.00000000E+00
  0.00000000E+00  0.00000000E+00  0.00000000E+00
  0.00000000E+00  0.00000000E+00  0.00000000E+00
  0.00000000E+00  0.00000000E+00  0.00000000E+00
  0.00000000E+00  0.00000000E+00  0.00000000E+00
  0.00000000E+00  0.00000000E+00  0.00000000E+00
  0.00000000E+00  0.00000000E+00  0.00000000E+00
  0.00000000E+00  0.00000000E+00  0.00000000E+00
  0.00000000E+00  0.00000000E+00  0.00000000E+00
  0.00000000E+00  0.00000000E+00  0.00000000E+00
  0.00000000E+00  0.00000000E+00  0.00000000E+00
  0.00000000E+00  0.00000000E+00  0.00000000E+00
  0.00000000E+00  0.00000000E+00  0.00000000E+00
  0.00000000E+00  0.00000000E+00  0.00000000E+00
  0.00000000E+00  0.00000000E+00  0.00000000E+00
  0.00000000E+00  0.00000000E+00  0.00000000E+00
  0.00000000E+00  0.00000000E+00  0.00000000E+00
  0.00000000E+00  0.00000000E+00  0.00000000E+00
  0.00000000E+00  0.00000000E+00  0.00000000E+00
  0.00000000E+00  0.00000000E+00  0.00000000E+00
  0.00000000E+00  0.00000000E+00  0.00000000E+00
  0.00000000E+00  0.00000000E+00  0.00000000E+00
  0.00000000E+00  0.00000000E+00  0.00000000E+00
  0.00000000E+00  0.00000000E+00  0.00000000E+00
  0.00000000E+00  0.00000000E+00  0.00000000E+00
  0.00000000E+00  0.00000000E+00  0.00000000E+00
  0.00000000E+00  0.00000000E+00  0.00000000E+00
  0.00000000E+00  0.00000000E+00  0.00000000E+00
  0.00000000E+00  0.00000000E+00  0.00000000E+00
  0.00000000E+00  0.00000000E+00  0.00000000E+00
  0.00000000E+00  0.00000000E+00  0.00000000E+00
  0.00000000E+00  0.00000000E+00  0.00000000E+00
  0.00000000E+00  0.00000000E+00  0.00000000E+00
  0.00000000E+00  0.00000000E+00  0.00000000E+00
  0.00000000E+00  0.00000000E+00  0.00000000E+00
  0.00000000E+00  0.00000000E+00  0.00000000E+00
  0.00000000E+00  0.00000000E+00  0.00000000E+00
  0.00000000E+00  0.00000000E+00  0.00000000E+00
  0.00000000E+00  0.00000000E+00  0.00000000E+00
  0.00000000E+00  0.00000000E+00  0.00000000E+00
  0.00000000E+00  0.00000000E+00  0.00000000E+00
  0.00000000E+00  0.00000000E+00  0.00000000E+00
  0.00000000E+00  0.00000000E+00  0.00000000E+00
  0.00000000E+00  0.00000000E+00  0.00000000E+00
  0.00000000E+00  0.00000000E+00  0.00000000E+00
  0.00000000E+00  0.00000000E+00  0.00000000E+00
  0.00000000E+00  0.00000000E+00  0.00000000E+00
  0.00000000E+00  0.00000000E+00  0.00000000E+00
  0.00000000E+00  0.00000000E+00  0.00000000E+00
  0.00000000E+00  0.00000000E+00  0.00000000E+00
  0.00000000E+00  0.00000000E+00  0.00000000E+00
  0.00000000E+00  0.00000000E+00  0.00000000E+00
  0.00000000E+00  0.00000000E+00  0.00000000E+00
  0.00000000E+00  0.00000000E+00  0.00000000E+00
  0.00000000E+00  0.00000000E+00  0.00000000E+00
  0.00000000E+00  0.00000000E+00  0.00000000E+00
  0.00000000E+00  0.00000000E+00  0.00000000E+00
  0.00000000E+00  0.00000000E+00  0.00000000E+00
  0.00000000E+00  0.00000000E+00  0.00000000E+00
  0.00000000E+00  0.00000000E+00  0.00000000E+00
  0.00000000E+00  0.00000000E+00  0.00000000E+00
  0.00000000E+00  0.00000000E+00  0.00000000E+00
  0.00000000E+00  0.00000000E+00  0.00000000E+00
  0.00000000E+00  0.00000000E+00  0.00000000E+00
  0.00000000E+00  0.00000000E+00  0.00000000E+00
  0.00000000E+00  0.00000000E+00  0.00000000E+00
  0.00000000E+00  0.00000000E+00  0.00000000E+00
  0.00000000E+00  0.00000000E+00  0.00000000E+00
  0.00000000E+00  0.00000000E+00  0.00000000E+00
  0.00000000E+00  0.00000000E+00  0.00000000E+00
  0.00000000E+00  0.00000000E+00  0.00000000E+00
  0.00000000E+00  0.00000000E+00  0.00000000E+00
  0.00000000E+00  0.00000000E+00  0.00000000E+00
  0.00000000E+00  0.00000000E+00  0.00000000E+00
  0.00000000E+00  0.00000000E+00  0.00000000E+00
