Ti7 O11
1.0
18.000000 0.000000 0.000000
0.000000 18.000000 0.000000
0.000000 0.000000 18.000000
Ti O
7 11
direct
0.394924 0.391559 0.481665 Ti
0.358436 0.499794 0.393558 Ti
0.492173 0.499822 0.476881 Ti
0.531667 0.576739 0.443346 Ti
0.458304 0.428808 0.473463 Ti
0.371476 0.627651 0.540217 Ti
0.462562 0.612101 0.646126 Ti
0.449386 0.655391 0.405900 O
0.403365 0.432323 0.639498 O
0.577936 0.464991 0.641740 O
0.499177 0.494228 0.655231 O
0.389590 0.531212 0.366902 O
0.423532 0.585668 0.635854 O
0.467269 0.584747 0.444646 O
0.675115 0.481511 0.493740 O
0.652825 0.570939 0.503968 O
0.439705 0.660327 0.568345 O
0.531188 0.397253 0.657156 O
