Ti7 O11
1.0
18.000000 0.000000 0.000000
0.000000 18.000000 0.000000
0.000000 0.000000 18.000000
Ti O
7 11
direct
0.393058 0.468591 0.394938 Ti
0.449223 0.578544 0.496456 Ti
0.539258 0.531868 0.360525 Ti
0.480331 0.418844 0.658394 Ti
0.534403 0.432552 0.500415 Ti
0.627889 0.405692 0.636933 Ti
0.561189 0.549557 0.607883 Ti
0.519074 0.513768 0.269788 O
0.419456 0.478526 0.496758 O
0.608606 0.391341 0.455442 O
0.508056 0.436938 0.391231 O
0.306675 0.506936 0.406443 O
0.439207 0.563344 0.381356 O
0.547428 0.542239 0.489877 O
0.625744 0.468787 0.558728 O
0.464813 0.591956 0.600944 O
0.620917 0.621856 0.626150 O
0.559233 0.464621 0.687017 O
