Ti6 O8
1.0
18.000000 0.000000 0.000000
0.000000 18.000000 0.000000
0.000000 0.000000 18.000000
Ti O
6 8
Selective dynamics
direct
0.492924 0.426559 0.496067 F F F Ti
0.555441 0.558172 0.399734 F F F Ti
0.422543 0.597161 0.492503 F F F Ti
0.404311 0.512552 0.575029 F F F Ti
0.559042 0.595434 0.598210 F F F Ti
0.370213 0.491977 0.477312 F F F Ti
0.517309 0.503498 0.332246 F F F O
0.591639 0.461352 0.446809 F F F O
0.470406 0.621323 0.401583 F F F O
0.636742 0.594212 0.480908 F F F O
0.453107 0.609079 0.590027 F F F O
0.472597 0.438803 0.568447 F F F O
0.392802 0.568747 0.628538 F F F O
0.582639 0.501485 0.551622 F F F O
