Ti7 O11
1.0
18.000000 0.000000 0.000000
0.000000 18.000000 0.000000
0.000000 0.000000 18.000000
Ti O
7 11
direct
0.437224 0.478957 0.484297 Ti
0.527088 0.384932 0.381176 Ti
0.606067 0.478248 0.434832 Ti
0.562546 0.524014 0.649825 Ti
0.374217 0.534942 0.575214 Ti
0.444860 0.396414 0.533260 Ti
0.689941 0.491313 0.474160 Ti
0.457986 0.433448 0.326106 O
0.533223 0.312459 0.484574 O
0.418393 0.624439 0.510542 O
0.347513 0.475149 0.600937 O
0.473076 0.522174 0.497366 O
0.471606 0.599701 0.628766 O
0.524077 0.378305 0.553563 O
0.468480 0.539637 0.674240 O
0.311521 0.526194 0.537737 O
0.573801 0.624746 0.402126 O
0.628294 0.593773 0.533586 O
