Ti7 O11
1.0
18.000000 0.000000 0.000000
0.000000 18.000000 0.000000
0.000000 0.000000 18.000000
Ti O
7 11
direct
0.431592 0.425885 0.393623 Ti
0.573772 0.368902 0.419668 Ti
0.583078 0.514888 0.374766 Ti
0.530093 0.657106 0.445033 Ti
0.471109 0.469087 0.547559 Ti
0.623472 0.520743 0.530606 Ti
0.563794 0.494294 0.674700 Ti
0.479706 0.375376 0.470102 O
0.529641 0.426983 0.345455 O
0.639378 0.454941 0.438037 O
0.420410 0.505288 0.454727 O
0.457273 0.646489 0.393096 O
0.540038 0.548213 0.467585 O
0.471152 0.464398 0.663572 O
0.408200 0.399747 0.573211 O
0.584006 0.440012 0.586189 O
0.413508 0.540607 0.577967 O
0.541401 0.559611 0.598167 O
