Ti7 O10
1.0
18.000000 0.000000 0.000000
0.000000 18.000000 0.000000
0.000000 0.000000 18.000000
Ti O
7 10
Selective dynamics
direct
0.504898 0.382868 0.477125 F F F Ti
0.486043 0.531100 0.391097 F F F Ti
0.365702 0.443166 0.437385 F F F Ti
0.483804 0.374331 0.563989 F F F Ti
0.378721 0.478064 0.626018 F F F Ti
0.454261 0.472859 0.494187 F F F Ti
0.533914 0.505538 0.641155 F F F Ti
0.454236 0.420542 0.387540 F F F O
0.591891 0.630198 0.563139 F F F O
0.392476 0.541530 0.433917 F F F O
0.514935 0.627281 0.427077 F F F O
0.404894 0.429954 0.532680 F F F O
0.583200 0.566905 0.476112 F F F O
0.463253 0.419097 0.662304 F F F O
0.446158 0.550681 0.591877 F F F O
0.544252 0.435548 0.406408 F F F O
0.551520 0.447362 0.549766 F F F O
