Ti7 O10
1.0
18.000000 0.000000 0.000000
0.000000 18.000000 0.000000
0.000000 0.000000 18.000000
Ti O
7 10
direct
0.349878 0.442810 0.445566 Ti
0.490895 0.374156 0.435709 Ti
0.456742 0.504226 0.341898 Ti
0.496501 0.525576 0.487965 Ti
0.500024 0.376258 0.590489 Ti
0.397270 0.490331 0.608889 Ti
0.555342 0.523002 0.634072 Ti
0.411331 0.403408 0.370813 O
0.536512 0.459181 0.400601 O
0.392953 0.533232 0.423215 O
0.507155 0.583156 0.396360 O
0.430729 0.430433 0.518767 O
0.476173 0.447081 0.663317 O
0.557939 0.436177 0.528361 O
0.463947 0.566600 0.586933 O
0.582694 0.560978 0.540126 O
0.548076 0.600417 0.688694 O
