Ti7 O11
1.0
18.000000 0.000000 0.000000
0.000000 18.000000 0.000000
0.000000 0.000000 18.000000
Ti O
7 11
direct
0.530716 0.370936 0.434873 Ti
0.672317 0.542543 0.459185 Ti
0.363797 0.410351 0.574899 Ti
0.636682 0.589152 0.403825 Ti
0.420117 0.442675 0.636866 Ti
0.640410 0.385663 0.524354 Ti
0.633150 0.411187 0.396100 Ti
0.482763 0.497501 0.435122 O
0.492030 0.496004 0.516709 O
0.603922 0.587873 0.501841 O
0.420984 0.579848 0.511671 O
0.597556 0.583148 0.597093 O
0.393272 0.463968 0.527661 O
0.313562 0.511411 0.479630 O
0.529326 0.503381 0.641923 O
0.555205 0.621581 0.420129 O
0.481716 0.552354 0.587522 O
0.632917 0.503929 0.563573 O
