Ti6 O11
1.0
18.000000 0.000000 0.000000
0.000000 18.000000 0.000000
0.000000 0.000000 18.000000
Ti O
6 11
direct
0.386471 0.346774 0.466065 Ti
0.672359 0.572518 0.533233 Ti
0.325365 0.549278 0.482731 Ti
0.482905 0.324557 0.431373 Ti
0.588060 0.595616 0.600731 Ti
0.495044 0.538591 0.633604 Ti
0.457475 0.521004 0.379667 O
0.342078 0.423281 0.470597 O
0.506583 0.584486 0.454149 O
0.562505 0.494545 0.357111 O
0.535534 0.438644 0.403982 O
0.525407 0.446357 0.496294 O
0.424754 0.585008 0.619903 O
0.531147 0.618177 0.553958 O
0.531483 0.408324 0.634247 O
0.362628 0.500934 0.625973 O
0.545515 0.583851 0.665290 O
