Ti7 O10
1.0
18.000000 0.000000 0.000000
0.000000 18.000000 0.000000
0.000000 0.000000 18.000000
Ti O
7 10
direct
0.483023 0.394313 0.478081 Ti
0.467364 0.554692 0.450283 Ti
0.380146 0.683661 0.497937 Ti
0.594067 0.496333 0.524179 Ti
0.630139 0.345764 0.534554 Ti
0.742394 0.453815 0.518484 Ti
0.305905 0.549525 0.536765 Ti
0.314826 0.464632 0.497399 O
0.537557 0.467639 0.433889 O
0.663178 0.412550 0.462415 O
0.359496 0.603794 0.453120 O
0.519666 0.615389 0.400944 O
0.543038 0.401257 0.560783 O
0.669700 0.427764 0.589989 O
0.369787 0.534708 0.603906 O
0.517736 0.569850 0.538707 O
0.692928 0.539407 0.505303 O
