Ti6 O10
1.0
18.000000 0.000000 0.000000
0.000000 18.000000 0.000000
0.000000 0.000000 18.000000
Ti O
6 10
direct
0.555489 0.591160 0.499985 Ti
0.441398 0.507112 0.426215 Ti
0.638521 0.478945 0.569009 Ti
0.390850 0.377660 0.507953 Ti
0.536415 0.502682 0.673076 Ti
0.583472 0.439716 0.645628 Ti
0.342666 0.550319 0.436436 O
0.489241 0.596779 0.415115 O
0.442867 0.483574 0.334078 O
0.646748 0.580668 0.456530 O
0.548775 0.488545 0.468837 O
0.658198 0.437076 0.427796 O
0.430700 0.497825 0.442995 O
0.419579 0.580214 0.555540 O
0.597746 0.577764 0.624562 O
0.421074 0.422461 0.480370 O
