Ti7 O11
1.0
18.000000 0.000000 0.000000
0.000000 18.000000 0.000000
0.000000 0.000000 18.000000
Ti O
7 11
direct
0.603943 0.595847 0.409937 Ti
0.541037 0.652466 0.536178 Ti
0.611689 0.470340 0.630084 Ti
0.608331 0.362839 0.420876 Ti
0.492535 0.482427 0.536919 Ti
0.637861 0.408274 0.520447 Ti
0.517955 0.549056 0.454031 Ti
0.386117 0.406155 0.509695 O
0.587226 0.557026 0.444409 O
0.323554 0.551354 0.499550 O
0.460095 0.609037 0.505005 O
0.517809 0.385441 0.399451 O
0.617206 0.448281 0.426508 O
0.410644 0.616660 0.425849 O
0.485113 0.598030 0.399582 O
0.376041 0.454709 0.361678 O
0.618798 0.584450 0.596474 O
0.553078 0.658169 0.520082 O
