Ti7 O11
1.0
18.000000 0.000000 0.000000
0.000000 18.000000 0.000000
0.000000 0.000000 18.000000
Ti O
7 11
direct
0.534167 0.471113 0.363289 Ti
0.383038 0.534731 0.379410 Ti
0.500869 0.582100 0.467833 Ti
0.516579 0.657272 0.339943 Ti
0.427145 0.322702 0.571050 Ti
0.403779 0.491991 0.598578 Ti
0.552446 0.418728 0.521668 Ti
0.387608 0.345861 0.489999 O
0.630350 0.370238 0.495547 O
0.474973 0.557828 0.362288 O
0.586917 0.504616 0.447988 O
0.548510 0.665428 0.430818 O
0.677467 0.535978 0.457106 O
0.520663 0.312897 0.530835 O
0.344724 0.458173 0.663006 O
0.474629 0.411151 0.610611 O
0.596367 0.448543 0.600350 O
0.448544 0.550029 0.657750 O
