Ti6 O10
1.0
18.000000 0.000000 0.000000
0.000000 18.000000 0.000000
0.000000 0.000000 18.000000
Ti O
6 10
Selective dynamics
direct
0.583447 0.420776 0.444037 F F F Ti
0.484436 0.545468 0.482883 F F F Ti
0.631915 0.546617 0.419692 F F F Ti
0.621021 0.453433 0.560449 F F F Ti
0.474330 0.485276 0.637391 F F F Ti
0.566190 0.612456 0.579668 F F F Ti
0.653146 0.476109 0.495235 F F F O
0.582089 0.614223 0.447340 F F F O
0.431549 0.438050 0.366579 F F F O
0.526146 0.491716 0.399486 F F F O
0.380956 0.558404 0.455253 F F F O
0.448128 0.561026 0.655976 F F F O
0.384236 0.461230 0.622582 F F F O
0.509155 0.436258 0.550791 F F F O
0.649866 0.549477 0.611093 F F F O
0.468663 0.571573 0.577896 F F F O
