Ti7 O11
1.0
18.000000 0.000000 0.000000
0.000000 18.000000 0.000000
0.000000 0.000000 18.000000
Ti O
7 11
Selective dynamics
direct
0.473199 0.471441 0.428139 F F F Ti
0.560804 0.337705 0.418598 F F F Ti
0.538281 0.622525 0.430726 F F F Ti
0.624497 0.473611 0.474762 F F F Ti
0.393762 0.453726 0.551898 F F F Ti
0.623444 0.443958 0.557851 F F F Ti
0.510162 0.544846 0.618704 F F F Ti
0.504909 0.396096 0.357222 F F F O
0.438737 0.583055 0.441349 F F F O
0.532692 0.410216 0.496343 F F F O
0.561193 0.518836 0.396565 F F F O
0.460323 0.508462 0.541122 F F F O
0.639252 0.588275 0.470618 F F F O
0.525324 0.675081 0.510432 F F F O
0.501009 0.442248 0.572180 F F F O
0.402687 0.520736 0.341120 F F F O
0.403135 0.546690 0.588427 F F F O
0.617034 0.544945 0.572277 F F F O
