Ti7 O11
1.0
18.000000 0.000000 0.000000
0.000000 18.000000 0.000000
0.000000 0.000000 18.000000
Ti O
7 11
Selective dynamics
direct
0.477674 0.395752 0.458737 F F F Ti
0.350783 0.475204 0.458495 F F F Ti
0.640022 0.452133 0.440644 F F F Ti
0.542985 0.583403 0.453281 F F F Ti
0.588689 0.410317 0.583255 F F F Ti
0.446727 0.512712 0.567861 F F F Ti
0.617657 0.542540 0.584643 F F F Ti
0.385067 0.381339 0.469315 F F F O
0.629678 0.424621 0.351761 F F F O
0.593808 0.374288 0.487882 F F F O
0.435332 0.510973 0.449632 F F F O
0.622771 0.552897 0.412415 F F F O
0.477690 0.420177 0.562114 F F F O
0.553588 0.481732 0.634269 F F F O
0.551198 0.492324 0.499282 F F F O
0.680221 0.464600 0.562388 F F F O
0.339733 0.503023 0.546522 F F F O
0.518929 0.610759 0.549057 F F F O
