Ti7 O11
1.0
18.000000 0.000000 0.000000
0.000000 18.000000 0.000000
0.000000 0.000000 18.000000
Ti O
7 11
direct
0.480459 0.404711 0.456786 Ti
0.337584 0.476711 0.464111 Ti
0.650794 0.459572 0.442488 Ti
0.537761 0.577567 0.438448 Ti
0.585411 0.398319 0.583328 Ti
0.455392 0.517874 0.564650 Ti
0.609994 0.554127 0.590311 Ti
0.375130 0.382494 0.467922 O
0.630872 0.427712 0.355406 O
0.589739 0.368192 0.480113 O
0.442597 0.507109 0.452254 O
0.636372 0.558894 0.410228 O
0.476628 0.409680 0.561411 O
0.348317 0.493847 0.562661 O
0.543318 0.490742 0.634767 O
0.557911 0.489267 0.503042 O
0.667422 0.464787 0.563428 O
0.526846 0.607183 0.540198 O
