Ti7 O11
1.0
18.000000 0.000000 0.000000
0.000000 18.000000 0.000000
0.000000 0.000000 18.000000
Ti O
7 11
direct
0.479816 0.366041 0.418004 Ti
0.466230 0.575625 0.470839 Ti
0.610575 0.450644 0.434022 Ti
0.575130 0.362842 0.551523 Ti
0.467849 0.415111 0.662600 Ti
0.376022 0.577430 0.554737 Ti
0.613122 0.525324 0.568071 Ti
0.576583 0.347976 0.449426 O
0.489036 0.458868 0.481117 O
0.506876 0.410514 0.341486 O
0.451898 0.600574 0.379525 O
0.504345 0.538474 0.487564 O
0.552221 0.621728 0.536673 O
0.652459 0.417431 0.565755 O
0.533628 0.387714 0.543502 O
0.658336 0.524828 0.494114 O
0.508152 0.498666 0.654346 O
0.460778 0.369240 0.564560 O
