Ti7 O9
1.0
18.000000 0.000000 0.000000
0.000000 18.000000 0.000000
0.000000 0.000000 18.000000
Ti O
7 9
direct
0.447649 0.453027 0.393538 Ti
0.596494 0.605889 0.376707 Ti
0.595165 0.487738 0.367227 Ti
0.417042 0.577909 0.385933 Ti
0.370751 0.593438 0.570907 Ti
0.568674 0.593674 0.633996 Ti
0.553009 0.442939 0.579503 Ti
0.532652 0.403932 0.347797 O
0.631960 0.434010 0.449706 O
0.516883 0.522700 0.427239 O
0.440251 0.422735 0.494236 O
0.492537 0.364000 0.549791 O
0.578479 0.412042 0.513830 O
0.496230 0.536936 0.592292 O
0.609009 0.601334 0.609978 O
0.427231 0.559863 0.551236 O
