Ti7 O10
1.0
18.000000 0.000000 0.000000
0.000000 18.000000 0.000000
0.000000 0.000000 18.000000
Ti O
7 10
direct
0.573489 0.560067 0.333293 Ti
0.472088 0.468576 0.470123 Ti
0.332295 0.548187 0.489588 Ti
0.462275 0.627111 0.440714 Ti
0.578689 0.393157 0.564861 Ti
0.717550 0.460462 0.609606 Ti
0.619389 0.541093 0.529807 Ti
0.500792 0.520747 0.297033 O
0.467228 0.394245 0.411369 O
0.588950 0.450935 0.479609 O
0.266758 0.510796 0.433741 O
0.406077 0.548988 0.412343 O
0.541546 0.561806 0.437865 O
0.482774 0.423128 0.569633 O
0.372451 0.458994 0.516177 O
0.615400 0.478454 0.619167 O
0.716850 0.506428 0.522895 O
