Ti6 O10
1.0
18.000000 0.000000 0.000000
0.000000 18.000000 0.000000
0.000000 0.000000 18.000000
Ti O
6 10
direct
0.472563 0.484717 0.328362 Ti
0.409040 0.386164 0.444946 Ti
0.575783 0.402538 0.420899 Ti
0.497636 0.524489 0.483308 Ti
0.443112 0.439597 0.597811 Ti
0.584544 0.395813 0.580978 Ti
0.569611 0.451203 0.320743 O
0.408253 0.486560 0.424222 O
0.476478 0.377661 0.367571 O
0.493276 0.570706 0.379943 O
0.586739 0.504088 0.435453 O
0.495219 0.400369 0.509023 O
0.528161 0.489704 0.595778 O
0.646122 0.417041 0.507624 O
0.503241 0.629389 0.515651 O
0.551269 0.686100 0.550745 O
