Ti7 O10
1.0
18.000000 0.000000 0.000000
0.000000 18.000000 0.000000
0.000000 0.000000 18.000000
Ti O
7 10
direct
0.342600 0.451523 0.485328 Ti
0.561778 0.390489 0.442253 Ti
0.480187 0.543472 0.446936 Ti
0.609444 0.528771 0.369548 Ti
0.457131 0.410869 0.563556 Ti
0.600600 0.489308 0.581600 Ti
0.477153 0.576539 0.620833 Ti
0.456902 0.427268 0.454633 O
0.580083 0.425191 0.348947 O
0.595717 0.483882 0.474324 O
0.414603 0.608322 0.423837 O
0.511773 0.535093 0.343717 O
0.567783 0.602389 0.436590 O
0.358937 0.381868 0.552107 O
0.422706 0.511789 0.543954 O
0.452738 0.659317 0.586117 O
0.578383 0.584278 0.594078 O
