Ti7 O10
1.0
18.000000 0.000000 0.000000
0.000000 18.000000 0.000000
0.000000 0.000000 18.000000
Ti O
7 10
Selective dynamics
direct
0.599143 0.500591 0.355650 F F F Ti
0.567553 0.422701 0.492700 F F F Ti
0.466002 0.531702 0.440377 F F F Ti
0.322663 0.471195 0.444837 F F F Ti
0.480626 0.390958 0.586605 F F F Ti
0.478055 0.554535 0.627690 F F F Ti
0.624708 0.478524 0.601995 F F F Ti
0.587716 0.404963 0.387761 F F F O
0.578654 0.527628 0.459281 F F F O
0.468259 0.422561 0.455955 F F F O
0.501372 0.515155 0.337156 F F F O
0.363603 0.429868 0.522057 F F F O
0.440437 0.632539 0.590074 F F F O
0.445398 0.492242 0.549152 F F F O
0.422409 0.642320 0.469652 F F F O
0.567919 0.563293 0.574148 F F F O
0.553998 0.629586 0.373270 F F F O
