Ti7 O11
1.0
18.000000 0.000000 0.000000
0.000000 18.000000 0.000000
0.000000 0.000000 18.000000
Ti O
7 11
direct
0.449016 0.624915 0.495501 Ti
0.379431 0.504656 0.531379 Ti
0.611513 0.453066 0.595427 Ti
0.338392 0.538840 0.461900 Ti
0.578159 0.382458 0.558910 Ti
0.482538 0.430758 0.677368 Ti
0.602370 0.472287 0.512970 Ti
0.622770 0.455860 0.443859 O
0.479832 0.399986 0.400961 O
0.489091 0.517891 0.414450 O
0.549970 0.464588 0.419039 O
0.548526 0.622138 0.616465 O
0.396438 0.459609 0.622129 O
0.427943 0.532941 0.646416 O
0.482467 0.623452 0.479683 O
0.671146 0.538295 0.522015 O
0.414294 0.429346 0.441314 O
0.525281 0.563454 0.470280 O
