Ti7 O11
1.0
18.000000 0.000000 0.000000
0.000000 18.000000 0.000000
0.000000 0.000000 18.000000
Ti O
7 11
direct
0.687411 0.367732 0.443792 Ti
0.325758 0.562678 0.431903 Ti
0.471639 0.553504 0.496028 Ti
0.628044 0.507106 0.491377 Ti
0.437659 0.437516 0.654689 Ti
0.344964 0.539472 0.591878 Ti
0.567933 0.537522 0.630956 Ti
0.504820 0.382177 0.439571 O
0.590456 0.392487 0.464213 O
0.719033 0.459058 0.447363 O
0.415002 0.592572 0.407481 O
0.545536 0.508959 0.429652 O
0.340848 0.447248 0.638583 O
0.367671 0.498289 0.497982 O
0.602961 0.457434 0.579550 O
0.467186 0.648744 0.509695 O
0.456313 0.531844 0.613356 O
0.575939 0.590200 0.542000 O
