Ti7 O11
1.0
18.000000 0.000000 0.000000
0.000000 18.000000 0.000000
0.000000 0.000000 18.000000
Ti O
7 11
direct
0.476879 0.421609 0.441384 Ti
0.346887 0.496689 0.485120 Ti
0.623933 0.441282 0.426883 Ti
0.538590 0.591022 0.444871 Ti
0.581056 0.413564 0.600178 Ti
0.489837 0.542052 0.594272 Ti
0.657844 0.553619 0.550504 Ti
0.373893 0.400131 0.468762 O
0.559289 0.384683 0.498963 O
0.547663 0.373521 0.373132 O
0.538001 0.499795 0.388684 O
0.462587 0.522494 0.491543 O
0.639289 0.553030 0.444935 O
0.318947 0.480492 0.572311 O
0.483481 0.441395 0.621667 O
0.664556 0.449937 0.532500 O
0.590417 0.515773 0.628261 O
0.564928 0.610722 0.546611 O
