Ti7 O11
1.0
18.000000 0.000000 0.000000
0.000000 18.000000 0.000000
0.000000 0.000000 18.000000
Ti O
7 11
direct
0.400596 0.369015 0.433718 Ti
0.487246 0.653139 0.408783 Ti
0.478123 0.502397 0.466979 Ti
0.630761 0.533554 0.424501 Ti
0.397556 0.424331 0.591972 Ti
0.499151 0.536809 0.624733 Ti
0.582233 0.641339 0.541511 Ti
0.390718 0.458140 0.412937 O
0.566600 0.452182 0.433631 O
0.458574 0.564494 0.378656 O
0.587694 0.642589 0.432879 O
0.698839 0.511904 0.484989 O
0.429124 0.349592 0.641144 O
0.500377 0.442882 0.566778 O
0.419231 0.540039 0.552521 O
0.492177 0.638039 0.589928 O
0.574856 0.539308 0.528740 O
0.414159 0.489302 0.669544 O
