Ti7 O8
1.0
18.000000 0.000000 0.000000
0.000000 18.000000 0.000000
0.000000 0.000000 18.000000
Ti O
7 8
direct
0.349939 0.380011 0.455532 Ti
0.463469 0.627111 0.467915 Ti
0.420970 0.526204 0.368954 Ti
0.333842 0.558417 0.495350 Ti
0.571161 0.511276 0.438478 Ti
0.457294 0.464687 0.540808 Ti
0.641239 0.412353 0.530927 Ti
0.420463 0.345386 0.406816 O
0.391521 0.490835 0.455777 O
0.645150 0.429813 0.429603 O
0.526504 0.423360 0.476177 O
0.398189 0.374396 0.545831 O
0.735183 0.411142 0.536490 O
0.515104 0.565517 0.520921 O
0.632372 0.515156 0.523674 O
