Ti6 O8
1.0
18.000000 0.000000 0.000000
0.000000 18.000000 0.000000
0.000000 0.000000 18.000000
Ti O
6 8
Selective dynamics
direct
0.479674 0.381369 0.368670 F F F Ti
0.463039 0.523646 0.440304 F F F Ti
0.577608 0.425180 0.487711 F F F Ti
0.479185 0.385928 0.579614 F F F Ti
0.590134 0.517140 0.617658 F F F Ti
0.445460 0.544025 0.543266 F F F Ti
0.477060 0.479406 0.342539 F F F O
0.465380 0.418824 0.471067 F F F O
0.567854 0.524229 0.440154 F F F O
0.578498 0.380488 0.387471 F F F O
0.621367 0.561202 0.513224 F F F O
0.558160 0.559348 0.675137 F F F O
0.482349 0.492469 0.633831 F F F O
0.538520 0.598601 0.546265 F F F O
