Ti6 O9
1.0
18.000000 0.000000 0.000000
0.000000 18.000000 0.000000
0.000000 0.000000 18.000000
Ti O
6 9
Selective dynamics
direct
0.382268 0.452506 0.452344 F F F Ti
0.555196 0.499568 0.406720 F F F Ti
0.362528 0.531976 0.477898 F F F Ti
0.559687 0.425988 0.459673 F F F Ti
0.419499 0.613785 0.462497 F F F Ti
0.610012 0.541035 0.597914 F F F Ti
0.478046 0.454007 0.566556 F F F O
0.584368 0.363833 0.493494 F F F O
0.508521 0.480993 0.661035 F F F O
0.618962 0.555622 0.485545 F F F O
0.514567 0.530216 0.483767 F F F O
0.409073 0.520463 0.563572 F F F O
0.637472 0.434563 0.557628 F F F O
0.469749 0.636167 0.520323 F F F O
0.484411 0.553420 0.338965 F F F O
