Ti6 O9
1.0
18.000000 0.000000 0.000000
0.000000 18.000000 0.000000
0.000000 0.000000 18.000000
Ti O
6 9
direct
0.580011 0.391191 0.486788 Ti
0.298867 0.543187 0.479112 Ti
0.435947 0.618928 0.454482 Ti
0.533868 0.510748 0.387663 Ti
0.418162 0.448439 0.501487 Ti
0.561650 0.521982 0.568722 Ti
0.661161 0.341648 0.479963 O
0.611383 0.487251 0.453973 O
0.488907 0.523109 0.482141 O
0.524819 0.612056 0.393542 O
0.495534 0.423252 0.564628 O
0.622156 0.437252 0.571028 O
0.374473 0.544694 0.534206 O
0.514359 0.515937 0.650483 O
0.473064 0.674472 0.519714 O
