Ti7 O11
1.0
18.000000 0.000000 0.000000
0.000000 18.000000 0.000000
0.000000 0.000000 18.000000
Ti O
7 11
direct
0.338794 0.482973 0.451598 Ti
0.479236 0.406677 0.459921 Ti
0.642994 0.457350 0.438703 Ti
0.531339 0.589939 0.445726 Ti
0.581889 0.407794 0.587356 Ti
0.445124 0.520349 0.562122 Ti
0.623239 0.558244 0.571156 Ti
0.371795 0.387556 0.460127 O
0.622411 0.433077 0.348773 O
0.589083 0.371612 0.480069 O
0.444243 0.511179 0.452304 O
0.635794 0.568406 0.450443 O
0.469824 0.413401 0.565161 O
0.599556 0.492751 0.649550 O
0.555700 0.490624 0.510531 O
0.672761 0.459913 0.550364 O
0.339983 0.507136 0.549867 O
0.523056 0.608317 0.546758 O
