Ti7 O11
1.0
18.000000 0.000000 0.000000
0.000000 18.000000 0.000000
0.000000 0.000000 18.000000
Ti O
7 11
Selective dynamics
direct
0.335609 0.494013 0.448972 F F F Ti
0.478775 0.403546 0.450653 F F F Ti
0.644130 0.466003 0.429695 F F F Ti
0.528438 0.580785 0.443924 F F F Ti
0.573451 0.401721 0.581845 F F F Ti
0.442849 0.510561 0.564014 F F F Ti
0.618761 0.553197 0.579583 F F F Ti
0.384076 0.390271 0.460182 F F F O
0.628289 0.426420 0.354632 F F F O
0.588885 0.384101 0.483340 F F F O
0.446684 0.510458 0.444159 F F F O
0.621994 0.559327 0.417049 F F F O
0.474740 0.409417 0.573356 F F F O
0.602159 0.477487 0.658541 F F F O
0.559012 0.502713 0.515937 F F F O
0.673845 0.466340 0.566579 F F F O
0.340560 0.513181 0.557598 F F F O
0.524569 0.617762 0.550470 F F F O
