Ti7 O11
1.0
18.000000 0.000000 0.000000
0.000000 18.000000 0.000000
0.000000 0.000000 18.000000
Ti O
7 11
Selective dynamics
direct
0.483737 0.419503 0.459931 F F F Ti
0.332363 0.491438 0.458075 F F F Ti
0.645348 0.472577 0.431483 F F F Ti
0.535867 0.586124 0.436521 F F F Ti
0.585053 0.394014 0.581890 F F F Ti
0.456435 0.528214 0.564514 F F F Ti
0.622902 0.543031 0.582833 F F F Ti
0.380036 0.396387 0.461226 F F F O
0.626689 0.425074 0.352777 F F F O
0.584971 0.384411 0.478508 F F F O
0.446878 0.520624 0.460671 F F F O
0.619804 0.553640 0.403269 F F F O
0.479311 0.420799 0.572732 F F F O
0.587344 0.490400 0.662206 F F F O
0.565079 0.499755 0.513533 F F F O
0.666366 0.452226 0.558902 F F F O
0.346811 0.498200 0.547677 F F F O
0.518397 0.603045 0.549891 F F F O
