Ti7 O11
1.0
18.000000 0.000000 0.000000
0.000000 18.000000 0.000000
0.000000 0.000000 18.000000
Ti O
7 11
direct
0.468975 0.469056 0.582145 Ti
0.444832 0.681954 0.536093 Ti
0.494639 0.381358 0.643646 Ti
0.457639 0.473426 0.439288 Ti
0.505575 0.511703 0.318370 Ti
0.552255 0.647454 0.466498 Ti
0.328477 0.417554 0.516476 Ti
0.382449 0.464396 0.382287 O
0.548632 0.498193 0.517300 O
0.618806 0.515062 0.563333 O
0.398666 0.352304 0.570004 O
0.550142 0.622169 0.561653 O
0.409816 0.621926 0.530261 O
0.494179 0.588786 0.620836 O
0.501071 0.601138 0.403943 O
0.639970 0.504494 0.379384 O
0.482382 0.434171 0.344453 O
0.569659 0.391233 0.460349 O
