Ti7 O11
1.0
18.000000 0.000000 0.000000
0.000000 18.000000 0.000000
0.000000 0.000000 18.000000
Ti O
7 11
direct
0.592833 0.467113 0.490753 Ti
0.461858 0.569356 0.430515 Ti
0.354413 0.486101 0.517417 Ti
0.506188 0.413427 0.607083 Ti
0.462287 0.610683 0.599928 Ti
0.591244 0.630744 0.514454 Ti
0.386734 0.493590 0.678061 Ti
0.417496 0.472164 0.437528 O
0.666861 0.412079 0.468627 O
0.448725 0.604328 0.343461 O
0.568939 0.562333 0.432107 O
0.340483 0.394818 0.531006 O
0.590511 0.467453 0.597761 O
0.512571 0.394877 0.508806 O
0.435482 0.500071 0.595744 O
0.480542 0.650444 0.503733 O
0.656467 0.548841 0.524653 O
0.561350 0.600944 0.610083 O
