Ti6 O10
1.0
18.000000 0.000000 0.000000
0.000000 18.000000 0.000000
0.000000 0.000000 18.000000
Ti O
6 10
direct
0.406689 0.466099 0.458418 Ti
0.541526 0.375501 0.468315 Ti
0.496123 0.597756 0.497328 Ti
0.614189 0.534031 0.409054 Ti
0.418539 0.489239 0.649564 Ti
0.560719 0.437666 0.615185 Ti
0.383895 0.569656 0.487504 O
0.655069 0.499921 0.587842 O
0.440171 0.364895 0.494757 O
0.582036 0.625791 0.434884 O
0.669330 0.518324 0.493303 O
0.533682 0.487707 0.465232 O
0.514480 0.498999 0.683895 O
0.463402 0.425916 0.573733 O
0.425667 0.564770 0.583753 O
0.581461 0.529093 0.552884 O
