Ti7 O11
1.0
18.000000 0.000000 0.000000
0.000000 18.000000 0.000000
0.000000 0.000000 18.000000
Ti O
7 11
direct
0.474193 0.451734 0.311779 Ti
0.400231 0.455343 0.451477 Ti
0.547419 0.533619 0.423151 Ti
0.499583 0.394874 0.568056 Ti
0.642700 0.409559 0.514552 Ti
0.439486 0.566478 0.555530 Ti
0.594828 0.547563 0.578589 Ti
0.439071 0.386278 0.380398 O
0.565917 0.454429 0.354827 O
0.553671 0.362951 0.489098 O
0.375843 0.560383 0.479995 O
0.446702 0.529176 0.376395 O
0.637678 0.513235 0.486776 O
0.399462 0.386244 0.532004 O
0.494596 0.484199 0.506173 O
0.601678 0.437967 0.604783 O
0.527810 0.607372 0.512947 O
0.675089 0.596322 0.595272 O
