Ti7 O11
1.0
18.000000 0.000000 0.000000
0.000000 18.000000 0.000000
0.000000 0.000000 18.000000
Ti O
7 11
Selective dynamics
direct
0.422137 0.588974 0.476354 F F F Ti
0.619578 0.553317 0.586550 F F F Ti
0.393058 0.468591 0.394938 F F F Ti
0.341666 0.481343 0.456868 F F F Ti
0.539258 0.531868 0.360525 F F F Ti
0.646544 0.460686 0.437858 F F F Ti
0.480331 0.418844 0.658394 F F F Ti
0.508056 0.436938 0.391231 F F F O
0.649222 0.464577 0.557059 F F F O
0.347129 0.506049 0.554242 F F F O
0.599314 0.381042 0.466749 F F F O
0.553864 0.516399 0.497641 F F F O
0.556394 0.492032 0.637350 F F F O
0.445278 0.509552 0.454377 F F F O
0.419456 0.478526 0.496758 F F F O
0.528150 0.605372 0.552126 F F F O
0.464813 0.591956 0.600944 F F F O
0.626950 0.559239 0.404305 F F F O
