Ti7 O9
1.0
18.000000 0.000000 0.000000
0.000000 18.000000 0.000000
0.000000 0.000000 18.000000
Ti O
7 9
direct
0.502063 0.656674 0.460556 Ti
0.462186 0.340718 0.430882 Ti
0.483307 0.586384 0.384433 Ti
0.413679 0.520779 0.555828 Ti
0.472481 0.456413 0.430051 Ti
0.362034 0.420216 0.532344 Ti
0.520715 0.444900 0.323699 Ti
0.400954 0.628717 0.470677 O
0.582456 0.556540 0.556604 O
0.562124 0.519894 0.410477 O
0.584528 0.546686 0.638672 O
0.591373 0.432639 0.534368 O
0.474039 0.516531 0.322170 O
0.405989 0.605568 0.540650 O
0.429319 0.408161 0.564499 O
0.471099 0.447552 0.486324 O
