Ti6 O10
1.0
18.000000 0.000000 0.000000
0.000000 18.000000 0.000000
0.000000 0.000000 18.000000
Ti O
6 10
direct
0.581072 0.476575 0.421736 Ti
0.484659 0.588400 0.361859 Ti
0.452367 0.444071 0.517949 Ti
0.582628 0.486972 0.598433 Ti
0.443625 0.554233 0.637456 Ti
0.528092 0.610633 0.510775 Ti
0.564756 0.534997 0.332457 O
0.560344 0.392914 0.379006 O
0.676583 0.467469 0.417442 O
0.476866 0.534462 0.458817 O
0.540776 0.655089 0.413403 O
0.473729 0.458882 0.622306 O
0.657111 0.462523 0.654556 O
0.552234 0.416423 0.515419 O
0.538403 0.586178 0.624344 O
0.612450 0.548626 0.512195 O
