Ti7 O11
1.0
18.000000 0.000000 0.000000
0.000000 18.000000 0.000000
0.000000 0.000000 18.000000
Ti O
7 11
direct
0.353464 0.543350 0.382888 Ti
0.500254 0.524404 0.624089 Ti
0.431447 0.505463 0.485915 Ti
0.425749 0.493517 0.338134 Ti
0.609462 0.506593 0.455419 Ti
0.398875 0.657961 0.453063 Ti
0.427914 0.600109 0.535695 Ti
0.518154 0.507569 0.678863 O
0.404551 0.455704 0.520389 O
0.325030 0.458146 0.489141 O
0.565670 0.602616 0.565184 O
0.432357 0.566374 0.652455 O
0.506087 0.392216 0.483581 O
0.598276 0.492587 0.642766 O
0.378998 0.609849 0.559932 O
0.479052 0.677179 0.539988 O
0.484174 0.517855 0.568930 O
0.397201 0.550480 0.424569 O
