Ti6 O11
1.0
18.000000 0.000000 0.000000
0.000000 18.000000 0.000000
0.000000 0.000000 18.000000
Ti O
6 11
Selective dynamics
direct
0.443103 0.585211 0.337250 F F F Ti
0.492658 0.322702 0.482632 F F F Ti
0.482981 0.643293 0.450221 F F F Ti
0.455379 0.398883 0.628856 F F F Ti
0.535136 0.496129 0.496646 F F F Ti
0.430228 0.559388 0.619629 F F F Ti
0.490774 0.422037 0.434287 F F F O
0.409109 0.340627 0.451126 F F F O
0.630281 0.473409 0.490943 F F F O
0.384851 0.608756 0.396603 F F F O
0.495002 0.663217 0.349808 F F F O
0.514387 0.541169 0.390766 F F F O
0.436974 0.309116 0.568889 F F F O
0.502762 0.496601 0.607775 F F F O
0.536064 0.400966 0.561710 F F F O
0.427646 0.551176 0.518532 F F F O
0.574879 0.582420 0.502695 F F F O
