Ti6 O11
1.0
18.000000 0.000000 0.000000
0.000000 18.000000 0.000000
0.000000 0.000000 18.000000
Ti O
6 11
direct
0.406928 0.420796 0.471641 Ti
0.575483 0.387215 0.404681 Ti
0.376039 0.566083 0.444105 Ti
0.610395 0.526542 0.480904 Ti
0.567001 0.483178 0.570090 Ti
0.425599 0.498898 0.634449 Ti
0.510634 0.444647 0.471716 O
0.556944 0.317590 0.485941 O
0.636930 0.416974 0.484395 O
0.430003 0.540603 0.628894 O
0.589726 0.490133 0.382197 O
0.440951 0.405906 0.353164 O
0.601770 0.378752 0.589348 O
0.640027 0.495136 0.632705 O
0.497764 0.430137 0.642913 O
0.359973 0.500116 0.541496 O
0.503792 0.559531 0.620288 O
