Ti7 O11
1.0
18.000000 0.000000 0.000000
0.000000 18.000000 0.000000
0.000000 0.000000 18.000000
Ti O
7 11
direct
0.502220 0.373036 0.577917 Ti
0.629039 0.465252 0.471261 Ti
0.481040 0.545652 0.501447 Ti
0.572411 0.450747 0.332033 Ti
0.545211 0.638805 0.597846 Ti
0.498594 0.455534 0.344154 Ti
0.469576 0.448486 0.416793 Ti
0.559117 0.634543 0.493565 O
0.421493 0.474238 0.600884 O
0.344319 0.594653 0.449626 O
0.430643 0.584660 0.460904 O
0.382624 0.382920 0.511672 O
0.597784 0.564384 0.353355 O
0.585953 0.360701 0.494978 O
0.528107 0.425473 0.582290 O
0.494824 0.403919 0.390980 O
0.520305 0.540989 0.565059 O
0.486582 0.532817 0.435380 O
