Ti7 O11
1.0
18.000000 0.000000 0.000000
0.000000 18.000000 0.000000
0.000000 0.000000 18.000000
Ti O
7 11
direct
0.336439 0.492125 0.475289 Ti
0.476274 0.414423 0.456707 Ti
0.646800 0.458171 0.438924 Ti
0.539451 0.589472 0.442526 Ti
0.585111 0.404882 0.581156 Ti
0.461564 0.522642 0.570639 Ti
0.625544 0.564094 0.571400 Ti
0.370382 0.396477 0.471462 O
0.618450 0.453968 0.348470 O
0.587017 0.371768 0.476162 O
0.440983 0.519181 0.458363 O
0.645294 0.572056 0.459498 O
0.475856 0.413272 0.562411 O
0.556656 0.492187 0.503196 O
0.670117 0.466353 0.556211 O
0.353398 0.502241 0.573856 O
0.528654 0.612411 0.541715 O
0.557417 0.501034 0.630317 O
