Ti7 O11
1.0
18.000000 0.000000 0.000000
0.000000 18.000000 0.000000
0.000000 0.000000 18.000000
Ti O
7 11
direct
0.468017 0.405818 0.444714 Ti
0.748978 0.443292 0.482641 Ti
0.358616 0.524987 0.446520 Ti
0.514437 0.411942 0.603617 Ti
0.621861 0.364916 0.504758 Ti
0.485571 0.557972 0.550963 Ti
0.347882 0.629933 0.565494 Ti
0.377942 0.423119 0.483862 O
0.653250 0.455158 0.460803 O
0.266814 0.508316 0.455099 O
0.342326 0.631950 0.464958 O
0.506001 0.337811 0.516784 O
0.615178 0.400631 0.600844 O
0.534509 0.461781 0.507426 O
0.729861 0.354669 0.518423 O
0.445427 0.655856 0.573683 O
0.382834 0.529807 0.553894 O
0.504156 0.513462 0.639433 O
