Ti7 O11
1.0
18.000000 0.000000 0.000000
0.000000 18.000000 0.000000
0.000000 0.000000 18.000000
Ti O
7 11
Selective dynamics
direct
0.341413 0.455342 0.484783 F F F Ti
0.486210 0.402907 0.618678 F F F Ti
0.534615 0.543383 0.552757 F F F Ti
0.375420 0.622827 0.457926 F F F Ti
0.425694 0.454786 0.622472 F F F Ti
0.481061 0.435362 0.455482 F F F Ti
0.547448 0.631886 0.385339 F F F Ti
0.474027 0.463396 0.518717 F F F O
0.611578 0.494949 0.479247 F F F O
0.609455 0.558070 0.621596 F F F O
0.499600 0.435166 0.393159 F F F O
0.441041 0.602706 0.581072 F F F O
0.549222 0.655156 0.534569 F F F O
0.494483 0.520855 0.631442 F F F O
0.384972 0.420092 0.392178 F F F O
0.623789 0.406411 0.388377 F F F O
0.536762 0.524654 0.486104 F F F O
0.657667 0.532267 0.526600 F F F O
