Ti6 O10
1.0
18.000000 0.000000 0.000000
0.000000 18.000000 0.000000
0.000000 0.000000 18.000000
Ti O
6 10
direct
0.578789 0.428991 0.465950 Ti
0.483760 0.589406 0.448947 Ti
0.643900 0.584161 0.473277 Ti
0.380823 0.487353 0.524379 Ti
0.560817 0.666372 0.572878 Ti
0.522621 0.510819 0.592978 Ti
0.484861 0.489127 0.493629 O
0.516508 0.373646 0.422896 O
0.448156 0.582328 0.359462 O
0.378337 0.580100 0.484664 O
0.576494 0.530056 0.414888 O
0.572883 0.661972 0.468077 O
0.556383 0.412637 0.566772 O
0.416991 0.506943 0.617117 O
0.473036 0.609261 0.565100 O
0.614572 0.576633 0.576461 O
