Ti6 O10
1.0
18.000000 0.000000 0.000000
0.000000 18.000000 0.000000
0.000000 0.000000 18.000000
Ti O
6 10
Selective dynamics
direct
0.550225 0.433855 0.468704 F F F Ti
0.481206 0.572736 0.385502 F F F Ti
0.611011 0.586999 0.486173 F F F Ti
0.549468 0.652873 0.571145 F F F Ti
0.531116 0.514745 0.665567 F F F Ti
0.397504 0.566573 0.600748 F F F Ti
0.438846 0.501041 0.339975 F F F O
0.581700 0.525742 0.398943 F F F O
0.500287 0.540683 0.495371 F F F O
0.397940 0.605893 0.457996 F F F O
0.535027 0.656082 0.452982 F F F O
0.611448 0.568388 0.614976 F F F O
0.554050 0.437064 0.587096 F F F O
0.431453 0.476054 0.632091 F F F O
0.503844 0.550878 0.550927 F F F O
0.533806 0.400202 0.339282 F F F O
