Ti6 O9
1.0
18.000000 0.000000 0.000000
0.000000 18.000000 0.000000
0.000000 0.000000 18.000000
Ti O
6 9
direct
0.538597 0.371613 0.412788 Ti
0.439383 0.573461 0.368754 Ti
0.583567 0.525897 0.377500 Ti
0.506863 0.485957 0.521159 Ti
0.447553 0.592011 0.643767 Ti
0.587994 0.528252 0.638611 Ti
0.510303 0.521712 0.311689 O
0.459476 0.391427 0.371538 O
0.387744 0.497621 0.383204 O
0.520944 0.570239 0.444449 O
0.487186 0.489465 0.632861 O
0.500303 0.379822 0.506156 O
0.603806 0.477613 0.552953 O
0.377561 0.598722 0.583217 O
0.532709 0.595578 0.578750 O
