Ti7 O10
1.0
18.000000 0.000000 0.000000
0.000000 18.000000 0.000000
0.000000 0.000000 18.000000
Ti O
7 10
direct
0.443116 0.589094 0.309444 Ti
0.430906 0.433837 0.377836 Ti
0.425894 0.582439 0.457206 Ti
0.463074 0.451477 0.527732 Ti
0.543601 0.460913 0.652583 Ti
0.441914 0.591539 0.622300 Ti
0.628967 0.532169 0.543168 Ti
0.449614 0.371668 0.454838 O
0.371526 0.484219 0.445446 O
0.496085 0.501906 0.423397 O
0.367249 0.604283 0.371301 O
0.499785 0.622089 0.381493 O
0.609222 0.551695 0.455542 O
0.462554 0.410171 0.627583 O
0.578828 0.434513 0.555389 O
0.387651 0.535329 0.561044 O
0.522036 0.546191 0.577956 O
