Ti7 O11
1.0
18.000000 0.000000 0.000000
0.000000 18.000000 0.000000
0.000000 0.000000 18.000000
Ti O
7 11
direct
0.498038 0.351560 0.557706 Ti
0.619284 0.451732 0.569498 Ti
0.362498 0.525563 0.541545 Ti
0.431335 0.588735 0.421583 Ti
0.412745 0.430216 0.472047 Ti
0.480161 0.535576 0.343858 Ti
0.651070 0.437491 0.436866 Ti
0.375217 0.447514 0.629766 O
0.400230 0.597492 0.613486 O
0.556715 0.590446 0.567661 O
0.416023 0.427180 0.481423 O
0.415060 0.530892 0.406493 O
0.564759 0.531139 0.515997 O
0.597108 0.455029 0.500847 O
0.614062 0.554935 0.364738 O
0.574546 0.354082 0.543720 O
0.551614 0.420997 0.361771 O
0.656395 0.603171 0.475842 O
