Ti7 O11
1.0
18.000000 0.000000 0.000000
0.000000 18.000000 0.000000
0.000000 0.000000 18.000000
Ti O
7 11
direct
0.367928 0.474346 0.376590 Ti
0.580272 0.437602 0.393628 Ti
0.515096 0.573567 0.364511 Ti
0.558189 0.315946 0.502216 Ti
0.467725 0.440648 0.515676 Ti
0.629178 0.455591 0.549316 Ti
0.519592 0.604189 0.511432 Ti
0.479421 0.497550 0.412805 O
0.509473 0.373232 0.425731 O
0.637456 0.390984 0.467377 O
0.326953 0.526603 0.436526 O
0.455601 0.332506 0.533809 O
0.560839 0.386384 0.581272 O
0.414788 0.539429 0.540968 O
0.372653 0.563517 0.612872 O
0.497253 0.655511 0.587383 O
0.536477 0.510470 0.565461 O
0.610278 0.633128 0.509322 O
