Ti7 O11
1.0
18.000000 0.000000 0.000000
0.000000 18.000000 0.000000
0.000000 0.000000 18.000000
Ti O
7 11
direct
0.412342 0.351633 0.471195 Ti
0.573896 0.322908 0.508469 Ti
0.677501 0.439776 0.491110 Ti
0.482902 0.600493 0.394152 Ti
0.574832 0.398030 0.616940 Ti
0.558832 0.361136 0.423617 Ti
0.579908 0.399520 0.364609 Ti
0.583255 0.637187 0.533496 O
0.564906 0.370074 0.477254 O
0.464525 0.504905 0.513717 O
0.492381 0.330655 0.415517 O
0.568510 0.537738 0.410846 O
0.596833 0.495077 0.541693 O
0.630110 0.363276 0.519727 O
0.600791 0.563569 0.639801 O
0.413840 0.649836 0.440392 O
0.547698 0.633626 0.413255 O
0.438731 0.405739 0.482544 O
