Ti7 O11
1.0
18.000000 0.000000 0.000000
0.000000 18.000000 0.000000
0.000000 0.000000 18.000000
Ti O
7 11
Selective dynamics
direct
0.442790 0.405049 0.388057 F F F Ti
0.582417 0.363075 0.418893 F F F Ti
0.582429 0.505947 0.353216 F F F Ti
0.549893 0.634087 0.489439 F F F Ti
0.467546 0.484255 0.553440 F F F Ti
0.614445 0.500147 0.524592 F F F Ti
0.560032 0.499909 0.663879 F F F Ti
0.509565 0.378513 0.475135 F F F O
0.425468 0.486865 0.444655 F F F O
0.548392 0.410629 0.353414 F F F O
0.645158 0.450894 0.436378 F F F O
0.440215 0.652543 0.485710 F F F O
0.535690 0.534520 0.446521 F F F O
0.407040 0.418221 0.582620 F F F O
0.466659 0.482455 0.656917 F F F O
0.581080 0.445888 0.591230 F F F O
0.410639 0.554875 0.555958 F F F O
0.557166 0.572060 0.571815 F F F O
