Ti7 O11
1.0
18.000000 0.000000 0.000000
0.000000 18.000000 0.000000
0.000000 0.000000 18.000000
Ti O
7 11
direct
0.478994 0.358311 0.470116 Ti
0.605367 0.452074 0.396903 Ti
0.457815 0.509671 0.416822 Ti
0.587972 0.605900 0.433739 Ti
0.466582 0.475066 0.576733 Ti
0.510646 0.627822 0.599461 Ti
0.616400 0.515002 0.561311 Ti
0.497856 0.419914 0.375061 O
0.410256 0.435909 0.483057 O
0.550176 0.438818 0.489826 O
0.390594 0.521008 0.349138 O
0.657450 0.532032 0.454906 O
0.552089 0.537736 0.361973 O
0.470824 0.366263 0.573833 O
0.558350 0.448795 0.616894 O
0.461676 0.556294 0.650517 O
0.604161 0.597361 0.626150 O
0.524022 0.561194 0.514814 O
