Ti6 O11
1.0
18.000000 0.000000 0.000000
0.000000 18.000000 0.000000
0.000000 0.000000 18.000000
Ti O
6 11
direct
0.429159 0.367612 0.581879 Ti
0.432674 0.462939 0.408345 Ti
0.569021 0.592177 0.424271 Ti
0.548759 0.598610 0.606465 Ti
0.641115 0.451675 0.549498 Ti
0.430220 0.498698 0.506308 Ti
0.555532 0.565893 0.467609 O
0.618718 0.367850 0.540825 O
0.607916 0.495183 0.367966 O
0.497628 0.582541 0.410041 O
0.415984 0.603961 0.377911 O
0.512094 0.398598 0.626334 O
0.645836 0.548603 0.587732 O
0.525018 0.584217 0.643808 O
0.522847 0.476742 0.357757 O
0.518483 0.408226 0.466462 O
0.405838 0.475811 0.637436 O
