Ti7 O11
1.0
18.000000 0.000000 0.000000
0.000000 18.000000 0.000000
0.000000 0.000000 18.000000
Ti O
7 11
direct
0.573856 0.477522 0.335488 Ti
0.530051 0.381872 0.449797 Ti
0.333384 0.534212 0.396047 Ti
0.474018 0.534626 0.458148 Ti
0.486387 0.426292 0.600206 Ti
0.617494 0.499203 0.552209 Ti
0.547353 0.643228 0.544934 Ti
0.447516 0.427138 0.491527 O
0.573161 0.479376 0.442421 O
0.516301 0.401493 0.339844 O
0.372632 0.581267 0.464008 O
0.534103 0.623650 0.446737 O
0.482265 0.344091 0.648317 O
0.574283 0.391277 0.550887 O
0.567844 0.479502 0.642978 O
0.704856 0.466486 0.573922 O
0.498979 0.547244 0.559489 O
0.640489 0.604572 0.551597 O
