Ti7 O11
1.0
18.000000 0.000000 0.000000
0.000000 18.000000 0.000000
0.000000 0.000000 18.000000
Ti O
7 11
Selective dynamics
direct
0.468787 0.411306 0.455908 F F F Ti
0.335219 0.477308 0.445237 F F F Ti
0.651712 0.456148 0.442096 F F F Ti
0.535139 0.586733 0.436397 F F F Ti
0.593061 0.401183 0.585051 F F F Ti
0.454650 0.524354 0.554373 F F F Ti
0.622000 0.545076 0.595099 F F F Ti
0.381235 0.381592 0.465470 F F F O
0.626689 0.425074 0.352777 F F F O
0.582412 0.366727 0.470943 F F F O
0.449217 0.514639 0.462384 F F F O
0.617254 0.565284 0.400527 F F F O
0.470771 0.407194 0.567541 F F F O
0.587052 0.492107 0.659242 F F F O
0.549510 0.489080 0.513318 F F F O
0.680604 0.465436 0.557652 F F F O
0.350626 0.504984 0.546447 F F F O
0.522320 0.599007 0.551729 F F F O
