Ti7 O11
1.0
18.000000 0.000000 0.000000
0.000000 18.000000 0.000000
0.000000 0.000000 18.000000
Ti O
7 11
direct
0.481809 0.405964 0.457299 Ti
0.341666 0.481343 0.456868 Ti
0.646544 0.460686 0.437858 Ti
0.533554 0.582872 0.447429 Ti
0.588239 0.399216 0.583300 Ti
0.457033 0.516020 0.570372 Ti
0.619578 0.553317 0.586550 Ti
0.375499 0.386164 0.466378 O
0.629678 0.424621 0.351761 O
0.590022 0.370743 0.478056 O
0.445278 0.509552 0.454377 O
0.626950 0.559239 0.404305 O
0.477728 0.409112 0.563117 O
0.556394 0.492032 0.637350 O
0.560300 0.490559 0.505406 O
0.672700 0.460367 0.555390 O
0.347129 0.506049 0.554242 O
0.528150 0.605372 0.552126 O
