Ti7 O11
1.0
18.000000 0.000000 0.000000
0.000000 18.000000 0.000000
0.000000 0.000000 18.000000
Ti O
7 11
direct
0.468636 0.409887 0.474143 Ti
0.643789 0.469562 0.470162 Ti
0.547171 0.474134 0.345199 Ti
0.355673 0.512396 0.477001 Ti
0.514949 0.577306 0.462107 Ti
0.410591 0.586300 0.606267 Ti
0.451496 0.709211 0.506468 Ti
0.368214 0.411427 0.488645 O
0.462808 0.497379 0.402288 O
0.456548 0.655417 0.423778 O
0.604244 0.537873 0.399618 O
0.503524 0.409816 0.576417 O
0.567067 0.417726 0.628389 O
0.324952 0.532405 0.572961 O
0.452256 0.516216 0.527909 O
0.501183 0.638311 0.558789 O
0.682611 0.534196 0.521513 O
0.444985 0.528528 0.671567 O
