# TiO2 cluster
units metal
dimension 3
boundary f f f
atom_style charge
read_data in.data

pair_style tersoff/zbl
pair_coeff * * /sandbox/vkolluru/Fantastx/examples/TiO2_clusters/Ti-O.tersoff.zbl Ti O 

compute peatom all pe/atom
neigh_modify one 1000
minimize 0.0 1.0e-3 1 1
minimize 0.0 1.0e-3 1000 3000
dump myDump all custom 5000 rlx.str id type x y z c_peatom
minimize 0.0 1.0e-4 1000 3000
