Ti7 O11
1.0
18.000000 0.000000 0.000000
0.000000 18.000000 0.000000
0.000000 0.000000 18.000000
Ti O
7 11
direct
0.438820 0.400873 0.398695 Ti
0.585067 0.358513 0.429519 Ti
0.586044 0.497624 0.364334 Ti
0.544937 0.641767 0.482598 Ti
0.472603 0.477375 0.541506 Ti
0.628978 0.508788 0.520587 Ti
0.563583 0.516004 0.666756 Ti
0.491851 0.371250 0.482199 O
0.422234 0.490210 0.441723 O
0.536368 0.403829 0.349161 O
0.648861 0.445304 0.429586 O
0.453594 0.650978 0.486271 O
0.544392 0.534760 0.456422 O
0.418468 0.407207 0.580428 O
0.468211 0.497819 0.655478 O
0.578439 0.446845 0.588494 O
0.406086 0.546759 0.555154 O
0.554078 0.575806 0.576572 O
