Ti7 O9
1.0
18.000000 0.000000 0.000000
0.000000 18.000000 0.000000
0.000000 0.000000 18.000000
Ti O
7 9
direct
0.518040 0.452377 0.487333 Ti
0.558061 0.624857 0.416383 Ti
0.378331 0.533976 0.595112 Ti
0.534208 0.615193 0.574343 Ti
0.611324 0.421348 0.370252 Ti
0.471920 0.399678 0.544022 Ti
0.526710 0.485221 0.666978 Ti
0.487800 0.354710 0.447709 O
0.389847 0.643081 0.486066 O
0.574264 0.477334 0.415949 O
0.496525 0.572906 0.488467 O
0.577017 0.575771 0.660590 O
0.527095 0.401395 0.386663 O
0.370892 0.423996 0.584570 O
0.480800 0.511104 0.566597 O
0.561379 0.414754 0.596995 O
