Ti7 O9
1.0
18.000000 0.000000 0.000000
0.000000 18.000000 0.000000
0.000000 0.000000 18.000000
Ti O
7 9
direct
0.525931 0.452312 0.467989 Ti
0.654522 0.451769 0.380329 Ti
0.579956 0.586894 0.405997 Ti
0.434287 0.388532 0.575550 Ti
0.552438 0.490906 0.632050 Ti
0.387708 0.527771 0.642339 Ti
0.486724 0.602106 0.537318 Ti
0.433784 0.396012 0.475873 O
0.568644 0.405726 0.380567 O
0.488634 0.554648 0.439834 O
0.626256 0.513347 0.458415 O
0.347468 0.450738 0.589439 O
0.465811 0.499660 0.572517 O
0.550552 0.404871 0.564811 O
0.383701 0.603672 0.576133 O
0.577800 0.578739 0.588872 O
