Ti7 O11
1.0
18.000000 0.000000 0.000000
0.000000 18.000000 0.000000
0.000000 0.000000 18.000000
Ti O
7 11
direct
0.417624 0.399076 0.457943 Ti
0.642250 0.466850 0.459640 Ti
0.528468 0.481058 0.359416 Ti
0.501798 0.649428 0.431798 Ti
0.617011 0.498539 0.616861 Ti
0.500257 0.523767 0.524906 Ti
0.631006 0.616533 0.501817 Ti
0.427777 0.454408 0.372059 O
0.587456 0.408037 0.394171 O
0.506843 0.345723 0.482794 O
0.421168 0.592522 0.457495 O
0.335480 0.590089 0.480599 O
0.573067 0.553294 0.435186 O
0.553047 0.307171 0.540097 O
0.407138 0.470016 0.529764 O
0.577861 0.443268 0.539086 O
0.527269 0.536703 0.628550 O
0.537664 0.639478 0.530896 O
