Ti6 O9
1.0
18.000000 0.000000 0.000000
0.000000 18.000000 0.000000
0.000000 0.000000 18.000000
Ti O
6 9
direct
0.498840 0.392478 0.426708 Ti
0.489564 0.543293 0.384744 Ti
0.365373 0.462957 0.553452 Ti
0.540817 0.473269 0.556356 Ti
0.437899 0.549591 0.663767 Ti
0.428511 0.604172 0.513014 Ti
0.433052 0.453719 0.372595 O
0.446992 0.491486 0.493462 O
0.559644 0.472301 0.436608 O
0.396421 0.578422 0.414793 O
0.512488 0.621072 0.454442 O
0.522154 0.373805 0.528608 O
0.633572 0.486917 0.539727 O
0.360047 0.554154 0.596539 O
0.504085 0.576144 0.592139 O
