Ti7 O11
1.0
18.000000 0.000000 0.000000
0.000000 18.000000 0.000000
0.000000 0.000000 18.000000
Ti O
7 11
direct
0.338657 0.484626 0.454075 Ti
0.479501 0.409970 0.459690 Ti
0.645411 0.463956 0.440541 Ti
0.535316 0.586856 0.450193 Ti
0.582956 0.405260 0.586383 Ti
0.445712 0.521294 0.563767 Ti
0.619389 0.554109 0.590639 Ti
0.373038 0.389600 0.459102 O
0.628289 0.426420 0.354632 O
0.587811 0.373743 0.479464 O
0.444936 0.514331 0.454426 O
0.628583 0.562628 0.408734 O
0.472473 0.415787 0.564539 O
0.594967 0.485951 0.658833 O
0.557628 0.493594 0.509742 O
0.672300 0.462750 0.556178 O
0.340658 0.502941 0.553288 O
0.526094 0.608078 0.555700 O
