Ti6 O10
1.0
18.000000 0.000000 0.000000
0.000000 18.000000 0.000000
0.000000 0.000000 18.000000
Ti O
6 10
Selective dynamics
direct
0.663399 0.504038 0.443606 F F F Ti
0.395581 0.415638 0.472819 F F F Ti
0.504783 0.533072 0.422013 F F F Ti
0.575708 0.624709 0.618955 F F F Ti
0.502996 0.486002 0.640129 F F F Ti
0.632168 0.484002 0.545088 F F F Ti
0.641206 0.409648 0.470929 F F F O
0.500620 0.422299 0.435032 F F F O
0.597737 0.507092 0.367269 F F F O
0.389914 0.512868 0.419354 F F F O
0.465652 0.621541 0.489532 F F F O
0.615427 0.396115 0.404773 F F F O
0.477602 0.623541 0.376361 F F F O
0.438349 0.620445 0.572504 F F F O
0.431043 0.505270 0.550070 F F F O
0.553687 0.418874 0.554900 F F F O
