Ti7 O9
1.0
18.000000 0.000000 0.000000
0.000000 18.000000 0.000000
0.000000 0.000000 18.000000
Ti O
7 9
direct
0.404304 0.485567 0.479209 Ti
0.559137 0.471270 0.434556 Ti
0.506730 0.622376 0.452429 Ti
0.561502 0.561207 0.587894 Ti
0.535812 0.441392 0.680906 Ti
0.417315 0.463592 0.573697 Ti
0.405292 0.612281 0.622655 Ti
0.605049 0.456402 0.351381 O
0.470773 0.528734 0.402250 O
0.606815 0.563761 0.462218 O
0.454065 0.340261 0.482721 O
0.527720 0.447834 0.577206 O
0.462435 0.525984 0.653880 O
0.373320 0.556865 0.541422 O
0.637799 0.620229 0.534764 O
0.486549 0.637387 0.564844 O
