Ti7 O9
1.0
18.000000 0.000000 0.000000
0.000000 18.000000 0.000000
0.000000 0.000000 18.000000
Ti O
7 9
direct
0.384904 0.473233 0.429507 Ti
0.543013 0.460950 0.444349 Ti
0.466099 0.606178 0.460213 Ti
0.442858 0.456180 0.572744 Ti
0.413061 0.604822 0.610289 Ti
0.566356 0.571422 0.580478 Ti
0.550227 0.454758 0.676822 Ti
0.451059 0.406617 0.475378 O
0.583744 0.422754 0.366386 O
0.468954 0.518587 0.388709 O
0.565039 0.568933 0.470054 O
0.553945 0.456592 0.572928 O
0.486043 0.535336 0.657439 O
0.398916 0.541404 0.519570 O
0.492042 0.650478 0.560739 O
0.648356 0.606889 0.616428 O
