Ti6 O11
1.0
18.000000 0.000000 0.000000
0.000000 18.000000 0.000000
0.000000 0.000000 18.000000
Ti O
6 11
direct
0.462609 0.466656 0.428265 Ti
0.621329 0.391543 0.480035 Ti
0.604434 0.536586 0.427202 Ti
0.464280 0.410182 0.333980 Ti
0.387435 0.490081 0.583102 Ti
0.533229 0.519411 0.589161 Ti
0.519739 0.377519 0.477621 O
0.533248 0.488349 0.353468 O
0.386741 0.435873 0.378811 O
0.386216 0.543776 0.472019 O
0.483642 0.540177 0.684418 O
0.506094 0.575613 0.442238 O
0.660731 0.516856 0.479724 O
0.467379 0.454420 0.535590 O
0.442554 0.582603 0.587670 O
0.611378 0.439773 0.585046 O
0.505807 0.534395 0.592451 O
