Ti7 O11
1.0
18.000000 0.000000 0.000000
0.000000 18.000000 0.000000
0.000000 0.000000 18.000000
Ti O
7 11
direct
0.554855 0.481883 0.428957 Ti
0.418628 0.576111 0.414145 Ti
0.554132 0.642311 0.461029 Ti
0.580150 0.331762 0.509903 Ti
0.639478 0.497601 0.570050 Ti
0.462604 0.509793 0.561583 Ti
0.401322 0.654717 0.554494 Ti
0.498705 0.313943 0.475707 O
0.451611 0.479086 0.455010 O
0.535386 0.421871 0.356852 O
0.350873 0.570361 0.345498 O
0.527063 0.577833 0.383142 O
0.451504 0.672172 0.460959 O
0.556544 0.434909 0.534946 O
0.616706 0.497013 0.659389 O
0.465228 0.604444 0.614372 O
0.375080 0.561556 0.515678 O
0.555363 0.562256 0.533191 O
