Ti7 O9
1.0
18.000000 0.000000 0.000000
0.000000 18.000000 0.000000
0.000000 0.000000 18.000000
Ti O
7 9
direct
0.483298 0.357427 0.453102 Ti
0.440174 0.648633 0.487189 Ti
0.601122 0.620850 0.482407 Ti
0.479551 0.497127 0.511044 Ti
0.557594 0.372487 0.601422 Ti
0.656256 0.487531 0.594483 Ti
0.529341 0.618328 0.616694 Ti
0.413036 0.413158 0.499189 O
0.534231 0.444228 0.436269 O
0.435315 0.556339 0.439121 O
0.528397 0.304399 0.533827 O
0.633833 0.405149 0.546077 O
0.439007 0.587111 0.574894 O
0.578139 0.546607 0.550797 O
0.349757 0.673489 0.505369 O
0.541291 0.684622 0.534831 O
