Ti6 O9
1.0
18.000000 0.000000 0.000000
0.000000 18.000000 0.000000
0.000000 0.000000 18.000000
Ti O
6 9
direct
0.487647 0.626017 0.488642 Ti
0.598322 0.537807 0.431241 Ti
0.542082 0.280216 0.548412 Ti
0.469596 0.440522 0.508067 Ti
0.619717 0.416189 0.538765 Ti
0.481768 0.539549 0.624472 Ti
0.572450 0.428607 0.447902 O
0.512009 0.577011 0.395096 O
0.660922 0.567617 0.364735 O
0.588461 0.618894 0.498556 O
0.435769 0.443268 0.606622 O
0.536123 0.368719 0.580939 O
0.481082 0.640250 0.595611 O
0.429017 0.544357 0.529128 O
0.549922 0.506944 0.546148 O
