Ti6 O9
1.0
18.000000 0.000000 0.000000
0.000000 18.000000 0.000000
0.000000 0.000000 18.000000
Ti O
6 9
Selective dynamics
direct
0.500715 0.424059 0.484898 F F F Ti
0.617957 0.547062 0.439088 F F F Ti
0.460711 0.604865 0.466730 F F F Ti
0.648310 0.423563 0.595962 F F F Ti
0.533380 0.499833 0.627816 F F F Ti
0.471827 0.317504 0.466915 F F F Ti
0.580891 0.524565 0.354664 F F F O
0.618502 0.444689 0.483893 F F F O
0.417210 0.495717 0.496807 F F F O
0.561733 0.644760 0.463211 F F F O
0.594526 0.547043 0.552363 F F F O
0.519418 0.392609 0.618697 F F F O
0.418970 0.470619 0.627076 F F F O
0.548814 0.603912 0.400534 F F F O
0.471925 0.595168 0.625676 F F F O
