Ti7 O11
1.0
18.000000 0.000000 0.000000
0.000000 18.000000 0.000000
0.000000 0.000000 18.000000
Ti O
7 11
direct
0.470500 0.432613 0.494872 Ti
0.498816 0.534395 0.345172 Ti
0.464504 0.629734 0.609857 Ti
0.604586 0.639208 0.584376 Ti
0.637137 0.402438 0.475706 Ti
0.569244 0.567634 0.549643 Ti
0.520533 0.595394 0.441811 Ti
0.668520 0.491964 0.592311 O
0.518056 0.570145 0.515341 O
0.356735 0.437316 0.591378 O
0.532312 0.625574 0.360975 O
0.518439 0.634387 0.447011 O
0.407547 0.349732 0.564068 O
0.438421 0.469251 0.494039 O
0.453504 0.540024 0.683076 O
0.486842 0.463325 0.331783 O
0.496720 0.587928 0.623148 O
0.527406 0.346875 0.535679 O
