Ti7 O11
1.0
18.000000 0.000000 0.000000
0.000000 18.000000 0.000000
0.000000 0.000000 18.000000
Ti O
7 11
direct
0.497970 0.566972 0.301848 Ti
0.541960 0.534446 0.450569 Ti
0.456244 0.395697 0.547269 Ti
0.614289 0.404433 0.517571 Ti
0.470034 0.639378 0.553232 Ti
0.628189 0.641678 0.527836 Ti
0.557478 0.522920 0.616967 Ti
0.502956 0.656289 0.319623 O
0.429227 0.390119 0.456211 O
0.456542 0.542026 0.391508 O
0.553001 0.638767 0.461123 O
0.408977 0.317483 0.574722 O
0.390196 0.455068 0.585133 O
0.556094 0.346848 0.571667 O
0.644244 0.469949 0.587567 O
0.484182 0.529022 0.540182 O
0.414330 0.636167 0.630111 O
0.563906 0.630672 0.607100 O
