Ti6 O10
1.0
18.000000 0.000000 0.000000
0.000000 18.000000 0.000000
0.000000 0.000000 18.000000
Ti O
6 10
Selective dynamics
direct
0.456492 0.605517 0.443301 F F F Ti
0.584071 0.499232 0.473122 F F F Ti
0.642586 0.600648 0.417383 F F F Ti
0.424598 0.564923 0.561035 F F F Ti
0.529134 0.444579 0.636337 F F F Ti
0.380117 0.469237 0.540667 F F F Ti
0.505974 0.625214 0.365339 F F F O
0.471208 0.501449 0.435025 F F F O
0.588691 0.497805 0.376387 F F F O
0.616522 0.393370 0.460636 F F F O
0.657480 0.561617 0.477173 F F F O
0.548276 0.630808 0.469537 F F F O
0.409655 0.463650 0.612281 F F F O
0.520184 0.527067 0.604075 F F F O
0.615806 0.503694 0.563656 F F F O
0.604719 0.637839 0.574707 F F F O
