Ti7 O9
1.0
18.000000 0.000000 0.000000
0.000000 18.000000 0.000000
0.000000 0.000000 18.000000
Ti O
7 9
Selective dynamics
direct
0.374023 0.445695 0.435199 F F F Ti
0.512764 0.427534 0.367881 F F F Ti
0.490495 0.575070 0.402876 F F F Ti
0.371171 0.488920 0.612928 F F F Ti
0.444021 0.625089 0.596330 F F F Ti
0.546570 0.511477 0.604703 F F F Ti
0.583415 0.383089 0.503306 F F F Ti
0.456433 0.384224 0.447751 F F F O
0.434343 0.495191 0.358812 F F F O
0.573993 0.513745 0.397916 F F F O
0.364601 0.570783 0.549791 F F F O
0.457132 0.540846 0.655816 F F F O
0.543707 0.602797 0.555615 F F F O
0.399262 0.432241 0.534551 F F F O
0.534725 0.334205 0.561118 F F F O
0.517238 0.473734 0.508453 F F F O
