Ti7 O9
1.0
18.000000 0.000000 0.000000
0.000000 18.000000 0.000000
0.000000 0.000000 18.000000
Ti O
7 9
direct
0.398433 0.412819 0.452038 Ti
0.504602 0.447642 0.344374 Ti
0.558578 0.399155 0.488971 Ti
0.485241 0.559089 0.457242 Ti
0.388596 0.500679 0.585144 Ti
0.452210 0.641633 0.592039 Ti
0.546828 0.520392 0.602144 Ti
0.486823 0.367958 0.415782 O
0.422417 0.498926 0.387803 O
0.565439 0.495008 0.412922 O
0.387802 0.396519 0.555333 O
0.482749 0.475243 0.523031 O
0.529383 0.343069 0.559267 O
0.395553 0.586550 0.521256 O
0.458337 0.551312 0.650750 O
0.540899 0.608644 0.544956 O
