Ti7 O10
1.0
18.000000 0.000000 0.000000
0.000000 18.000000 0.000000
0.000000 0.000000 18.000000
Ti O
7 10
direct
0.428542 0.363388 0.485519 Ti
0.537396 0.480659 0.449074 Ti
0.693283 0.468073 0.486107 Ti
0.382367 0.515823 0.401919 Ti
0.478138 0.631933 0.401809 Ti
0.435595 0.577167 0.547357 Ti
0.612467 0.580844 0.550740 Ti
0.428634 0.476531 0.487124 O
0.507462 0.378183 0.422226 O
0.612561 0.408901 0.487954 O
0.391046 0.610789 0.450843 O
0.479641 0.536807 0.364713 O
0.631833 0.547134 0.451940 O
0.478618 0.349596 0.562406 O
0.364539 0.530501 0.587278 O
0.529991 0.514857 0.554434 O
0.677178 0.507484 0.579883 O
