Ti7 O10
1.0
18.000000 0.000000 0.000000
0.000000 18.000000 0.000000
0.000000 0.000000 18.000000
Ti O
7 10
direct
0.678587 0.499513 0.489737 Ti
0.495066 0.501121 0.489412 Ti
0.454348 0.395279 0.479685 Ti
0.449086 0.559556 0.523240 Ti
0.584774 0.606246 0.522686 Ti
0.391982 0.486712 0.355717 Ti
0.455409 0.601826 0.433134 Ti
0.592321 0.353593 0.447897 O
0.419596 0.465732 0.504440 O
0.399418 0.612418 0.430876 O
0.543233 0.477412 0.618337 O
0.495143 0.568017 0.417879 O
0.381664 0.377888 0.501315 O
0.628974 0.373174 0.524015 O
0.601279 0.552438 0.360412 O
0.423143 0.548797 0.629376 O
0.675265 0.498954 0.543166 O
