Ti7 O11
1.0
18.000000 0.000000 0.000000
0.000000 18.000000 0.000000
0.000000 0.000000 18.000000
Ti O
7 11
direct
0.385808 0.477291 0.391748 Ti
0.523139 0.437429 0.493812 Ti
0.453088 0.588272 0.487023 Ti
0.549333 0.507503 0.357831 Ti
0.471556 0.420229 0.652478 Ti
0.616861 0.397602 0.626233 Ti
0.557578 0.547352 0.603750 Ti
0.557317 0.460268 0.276076 O
0.418922 0.489250 0.492134 O
0.488598 0.422937 0.389667 O
0.607111 0.452229 0.426322 O
0.303650 0.525130 0.402257 O
0.447501 0.558944 0.373339 O
0.547091 0.546987 0.487156 O
0.619550 0.465077 0.552788 O
0.462663 0.593189 0.592578 O
0.619194 0.617967 0.622294 O
0.553902 0.459339 0.680622 O
