Ti7 O11
1.0
18.000000 0.000000 0.000000
0.000000 18.000000 0.000000
0.000000 0.000000 18.000000
Ti O
7 11
Selective dynamics
direct
0.582378 0.404219 0.585378 F F F Ti
0.437041 0.403950 0.406898 F F F Ti
0.579783 0.408168 0.646272 F F F Ti
0.537245 0.551199 0.596206 F F F Ti
0.593106 0.493442 0.349256 F F F Ti
0.446695 0.523455 0.562078 F F F Ti
0.479068 0.409423 0.459678 F F F Ti
0.616739 0.490335 0.585856 F F F O
0.677883 0.540864 0.475018 F F F O
0.539818 0.534793 0.461906 F F F O
0.448621 0.335924 0.481578 F F F O
0.341267 0.506709 0.552183 F F F O
0.547935 0.364708 0.556606 F F F O
0.671706 0.460291 0.553433 F F F O
0.407113 0.601787 0.419746 F F F O
0.596022 0.625139 0.549397 F F F O
0.444731 0.513684 0.452264 F F F O
0.595278 0.485186 0.656433 F F F O
