Ti7 O11
1.0
18.000000 0.000000 0.000000
0.000000 18.000000 0.000000
0.000000 0.000000 18.000000
Ti O
7 11
direct
0.548491 0.304900 0.363228 Ti
0.505613 0.427794 0.442729 Ti
0.456759 0.580822 0.441648 Ti
0.378389 0.423606 0.550263 Ti
0.521452 0.475334 0.597206 Ti
0.379536 0.585794 0.582039 Ti
0.532789 0.630500 0.571361 Ti
0.477325 0.323647 0.427338 O
0.438517 0.492765 0.391938 O
0.580233 0.397244 0.370872 O
0.362477 0.592072 0.481277 O
0.441462 0.637272 0.367287 O
0.471589 0.386150 0.542160 O
0.410816 0.487294 0.621711 O
0.561011 0.415171 0.659033 O
0.580189 0.464496 0.509796 O
0.444653 0.663044 0.604833 O
0.550141 0.568067 0.645850 O
