Ti7 O11
1.0
18.000000 0.000000 0.000000
0.000000 18.000000 0.000000
0.000000 0.000000 18.000000
Ti O
7 11
Selective dynamics
direct
0.625350 0.542162 0.546826 F F F Ti
0.430973 0.425787 0.395482 F F F Ti
0.560858 0.501399 0.649217 F F F Ti
0.337992 0.492362 0.468869 F F F Ti
0.537344 0.659967 0.441414 F F F Ti
0.578283 0.366899 0.449692 F F F Ti
0.471457 0.470643 0.548296 F F F Ti
0.540448 0.562756 0.595278 F F F O
0.407241 0.403112 0.575456 F F F O
0.558111 0.488099 0.497382 F F F O
0.643172 0.452232 0.439041 F F F O
0.439389 0.535164 0.569519 F F F O
0.475114 0.416702 0.563011 F F F O
0.475666 0.391742 0.465676 F F F O
0.432219 0.510362 0.452746 F F F O
0.672106 0.462069 0.548147 F F F O
0.367218 0.395389 0.475292 F F F O
0.535182 0.609678 0.527882 F F F O
