Ti6 O10
1.0
18.000000 0.000000 0.000000
0.000000 18.000000 0.000000
0.000000 0.000000 18.000000
Ti O
6 10
direct
0.550997 0.483098 0.310613 Ti
0.526752 0.402640 0.438407 Ti
0.421420 0.533097 0.426574 Ti
0.470657 0.438928 0.580850 Ti
0.586722 0.559528 0.581156 Ti
0.470319 0.593356 0.673661 Ti
0.618911 0.548412 0.306603 O
0.491465 0.386461 0.344293 O
0.429552 0.436417 0.477954 O
0.610672 0.424923 0.369138 O
0.526759 0.508834 0.415846 O
0.428995 0.594822 0.495015 O
0.543861 0.384790 0.550485 O
0.533137 0.505897 0.648739 O
0.525665 0.635383 0.594233 O
0.525593 0.625328 0.740961 O
