Ti6 O10
1.0
18.000000 0.000000 0.000000
0.000000 18.000000 0.000000
0.000000 0.000000 18.000000
Ti O
6 10
direct
0.520762 0.417610 0.322330 Ti
0.412435 0.575478 0.322033 Ti
0.482906 0.492574 0.444932 Ti
0.646078 0.468408 0.428113 Ti
0.446240 0.521122 0.620989 Ti
0.589739 0.540778 0.558100 Ti
0.424022 0.472503 0.346624 O
0.489284 0.382087 0.408488 O
0.569233 0.499601 0.369969 O
0.482701 0.589728 0.396296 O
0.340316 0.587128 0.379312 O
0.546760 0.498687 0.640750 O
0.577161 0.452310 0.500890 O
0.496752 0.571833 0.525748 O
0.416343 0.459254 0.688317 O
0.446881 0.597811 0.674833 O
