Ti7 O11
1.0
18.000000 0.000000 0.000000
0.000000 18.000000 0.000000
0.000000 0.000000 18.000000
Ti O
7 11
Selective dynamics
direct
0.445077 0.376216 0.482845 F F F Ti
0.512457 0.478417 0.371703 F F F Ti
0.348616 0.506701 0.421380 F F F Ti
0.473362 0.463043 0.633881 F F F Ti
0.609419 0.395752 0.595087 F F F Ti
0.548836 0.513956 0.509167 F F F Ti
0.608886 0.555577 0.647661 F F F Ti
0.577861 0.467632 0.293518 F F F O
0.432387 0.491154 0.461838 F F F O
0.501454 0.363598 0.394860 F F F O
0.586493 0.462542 0.428899 F F F O
0.537589 0.564202 0.408889 F F F O
0.502829 0.428357 0.549684 F F F O
0.635357 0.475492 0.562153 F F F O
0.310880 0.499037 0.502589 F F F O
0.520228 0.552980 0.613647 F F F O
0.600879 0.598231 0.557513 F F F O
0.564920 0.445715 0.674845 F F F O
