Ti6 O11
1.0
18.000000 0.000000 0.000000
0.000000 18.000000 0.000000
0.000000 0.000000 18.000000
Ti O
6 11
direct
0.510081 0.445404 0.399754 Ti
0.489326 0.600117 0.475952 Ti
0.630611 0.524870 0.478026 Ti
0.461164 0.350438 0.600128 Ti
0.391467 0.465244 0.502940 Ti
0.517927 0.493089 0.601533 Ti
0.522501 0.424296 0.307273 O
0.417372 0.395912 0.425300 O
0.600217 0.426454 0.452442 O
0.428344 0.523089 0.422202 O
0.552190 0.546771 0.401751 O
0.591478 0.622594 0.496634 O
0.453191 0.678478 0.434991 O
0.488303 0.422451 0.528030 O
0.622872 0.499431 0.577394 O
0.435301 0.550915 0.560189 O
0.483340 0.415680 0.668339 O
