Ti7 O11
1.0
18.000000 0.000000 0.000000
0.000000 18.000000 0.000000
0.000000 0.000000 18.000000
Ti O
7 11
direct
0.386237 0.476841 0.393910 Ti
0.523769 0.438576 0.496028 Ti
0.451259 0.588194 0.490269 Ti
0.549630 0.510181 0.360727 Ti
0.472259 0.419646 0.654594 Ti
0.617844 0.399108 0.628389 Ti
0.556433 0.548186 0.606928 Ti
0.559467 0.463727 0.278726 O
0.418559 0.488652 0.494598 O
0.490068 0.424468 0.391541 O
0.607911 0.455364 0.428964 O
0.303797 0.524584 0.402441 O
0.446735 0.559528 0.376339 O
0.545934 0.548474 0.490402 O
0.619567 0.467253 0.555606 O
0.460863 0.592878 0.595839 O
0.617500 0.619339 0.625050 O
0.554060 0.459498 0.683256 O
