Ti6 O11
1.0
18.000000 0.000000 0.000000
0.000000 18.000000 0.000000
0.000000 0.000000 18.000000
Ti O
6 11
direct
0.461443 0.415543 0.366813 Ti
0.406278 0.575228 0.403376 Ti
0.554199 0.514086 0.454876 Ti
0.422641 0.433532 0.520034 Ti
0.570083 0.489953 0.619344 Ti
0.482523 0.606806 0.578517 Ti
0.457219 0.346845 0.299055 O
0.377288 0.457103 0.425812 O
0.455862 0.359646 0.456004 O
0.560633 0.422702 0.400073 O
0.491167 0.526846 0.361597 O
0.451573 0.657633 0.405409 O
0.445924 0.541775 0.498336 O
0.648206 0.533072 0.441599 O
0.534625 0.437565 0.532749 O
0.485930 0.537886 0.653367 O
0.579606 0.572967 0.554701 O
