Ti6 O11
1.0
18.000000 0.000000 0.000000
0.000000 18.000000 0.000000
0.000000 0.000000 18.000000
Ti O
6 11
direct
0.389118 0.431796 0.477916 Ti
0.481881 0.527017 0.375472 Ti
0.458031 0.338446 0.580928 Ti
0.522890 0.493486 0.593567 Ti
0.411910 0.585367 0.514506 Ti
0.545844 0.640967 0.594161 Ti
0.474196 0.552487 0.283026 O
0.474403 0.498657 0.496873 O
0.469403 0.356574 0.485342 O
0.439639 0.428801 0.380279 O
0.376291 0.531473 0.422232 O
0.469431 0.618656 0.429314 O
0.575894 0.509564 0.386183 O
0.374233 0.387798 0.579750 O
0.347364 0.507532 0.544189 O
0.464935 0.580994 0.615356 O
0.595506 0.561144 0.565450 O
