Ti7 O11
1.0
18.000000 0.000000 0.000000
0.000000 18.000000 0.000000
0.000000 0.000000 18.000000
Ti O
7 11
direct
0.336227 0.489993 0.470403 Ti
0.475902 0.412103 0.453926 Ti
0.645606 0.454687 0.434921 Ti
0.538652 0.586533 0.437882 Ti
0.584089 0.403638 0.579133 Ti
0.460890 0.521104 0.567172 Ti
0.626067 0.561678 0.566139 Ti
0.370311 0.394365 0.470332 O
0.617400 0.450483 0.344400 O
0.585589 0.368982 0.474170 O
0.556194 0.489899 0.499947 O
0.440697 0.517029 0.454744 O
0.644628 0.568417 0.453700 O
0.474794 0.411963 0.559794 O
0.669767 0.463451 0.552123 O
0.351788 0.504557 0.568683 O
0.528817 0.609822 0.537112 O
0.557772 0.500533 0.626950 O
