Ti7 O11
1.0
18.000000 0.000000 0.000000
0.000000 18.000000 0.000000
0.000000 0.000000 18.000000
Ti O
7 11
direct
0.384804 0.476043 0.396433 Ti
0.523568 0.438869 0.497279 Ti
0.450805 0.588344 0.491012 Ti
0.547757 0.509273 0.361042 Ti
0.473936 0.421317 0.656606 Ti
0.619228 0.400713 0.628889 Ti
0.557383 0.549517 0.606794 Ti
0.556700 0.462091 0.279356 O
0.418284 0.488807 0.496626 O
0.488669 0.423774 0.393325 O
0.606900 0.455147 0.429089 O
0.302409 0.523766 0.405491 O
0.444988 0.558639 0.377408 O
0.545526 0.548738 0.490400 O
0.620017 0.468197 0.555474 O
0.461632 0.594000 0.596417 O
0.618567 0.620900 0.623556 O
0.556017 0.461524 0.683944 O
