Ti7 O10
1.0
18.000000 0.000000 0.000000
0.000000 18.000000 0.000000
0.000000 0.000000 18.000000
Ti O
7 10
direct
0.502989 0.375807 0.454487 Ti
0.383543 0.504538 0.405569 Ti
0.532494 0.532459 0.451737 Ti
0.525898 0.292002 0.580089 Ti
0.478966 0.440172 0.599344 Ti
0.390044 0.565339 0.549269 Ti
0.511815 0.645478 0.596444 Ti
0.546508 0.281835 0.483052 O
0.433875 0.461821 0.493871 O
0.582794 0.440741 0.446083 O
0.469854 0.541626 0.366922 O
0.359815 0.590939 0.454622 O
0.603233 0.595078 0.434801 O
0.441762 0.347687 0.550537 O
0.561494 0.390434 0.561550 O
0.419903 0.664639 0.573383 O
0.501487 0.547479 0.559328 O
