Ti7 O9
1.0
18.000000 0.000000 0.000000
0.000000 18.000000 0.000000
0.000000 0.000000 18.000000
Ti O
7 9
direct
0.467063 0.437083 0.465128 Ti
0.335197 0.366994 0.426125 Ti
0.652194 0.462073 0.414073 Ti
0.470850 0.470276 0.635861 Ti
0.610011 0.372918 0.529473 Ti
0.420063 0.581689 0.513861 Ti
0.576044 0.542799 0.531391 Ti
0.384948 0.433108 0.387396 O
0.572794 0.388953 0.433508 O
0.490210 0.537686 0.451281 O
0.614422 0.553783 0.427100 O
0.405567 0.482487 0.549798 O
0.666117 0.460543 0.517291 O
0.533662 0.443010 0.554699 O
0.506109 0.625250 0.548337 O
0.542447 0.540383 0.641289 O
