Ti7 O9
1.0
18.000000 0.000000 0.000000
0.000000 18.000000 0.000000
0.000000 0.000000 18.000000
Ti O
7 9
Selective dynamics
direct
0.604375 0.412740 0.570291 F F F Ti
0.448288 0.444965 0.458051 F F F Ti
0.552751 0.501031 0.549727 F F F Ti
0.378553 0.386617 0.426519 F F F Ti
0.470423 0.634095 0.477821 F F F Ti
0.526987 0.472545 0.642794 F F F Ti
0.611766 0.461395 0.379572 F F F Ti
0.550660 0.558477 0.629179 F F F O
0.541367 0.365905 0.452122 F F F O
0.514593 0.588732 0.565645 F F F O
0.466988 0.438254 0.357206 F F F O
0.621447 0.546353 0.398029 F F F O
0.617246 0.491543 0.504841 F F F O
0.505707 0.407975 0.549922 F F F O
0.420346 0.527072 0.503059 F F F O
0.416210 0.461341 0.561827 F F F O
