Ti6 O8
1.0
18.000000 0.000000 0.000000
0.000000 18.000000 0.000000
0.000000 0.000000 18.000000
Ti O
6 8
direct
0.421579 0.514108 0.400592 Ti
0.520258 0.540303 0.353150 Ti
0.479167 0.469835 0.498674 Ti
0.497861 0.351858 0.444730 Ti
0.525126 0.414541 0.406004 Ti
0.578421 0.601775 0.451854 Ti
0.461345 0.577875 0.567801 O
0.435826 0.623209 0.449706 O
0.497755 0.584864 0.410371 O
0.550858 0.484634 0.505204 O
0.440551 0.414808 0.462694 O
0.466237 0.486573 0.646850 O
0.560861 0.478296 0.393585 O
0.552218 0.648142 0.394896 O
