Al258 O144
1.0
8.428300 0.000000 0.000000
0.000000 14.598200 0.000000
0.000000 0.000000 49.585438
Al O Al
96 144 162
direct
0.013594 0.166667 0.116995 Al
0.013594 0.500000 0.116995 Al
0.013594 0.833333 0.116995 Al
0.513594 0.000000 0.116995 Al
0.513594 0.333333 0.116995 Al
0.513594 0.666666 0.116995 Al
0.346927 0.166667 0.151087 Al
0.346927 0.500000 0.151087 Al
0.346927 0.833333 0.151087 Al
0.846927 0.000000 0.151087 Al
0.846927 0.333333 0.151087 Al
0.846927 0.666667 0.151087 Al
0.180261 0.000000 0.160992 Al
0.180261 0.333333 0.160992 Al
0.180261 0.666666 0.160992 Al
0.680261 0.166667 0.160992 Al
0.680261 0.500000 0.160992 Al
0.680261 0.833333 0.160992 Al
0.013594 0.166667 0.195085 Al
0.013594 0.500000 0.195085 Al
0.013594 0.833333 0.195085 Al
0.513594 0.000000 0.195085 Al
0.513594 0.333333 0.195085 Al
0.513594 0.666666 0.195085 Al
0.346927 0.166667 0.204991 Al
0.346927 0.500000 0.204991 Al
0.346927 0.833333 0.204991 Al
0.846927 0.000000 0.204991 Al
0.846927 0.333333 0.204991 Al
0.846927 0.666667 0.204991 Al
0.180261 0.000000 0.239082 Al
0.180261 0.333333 0.239082 Al
0.180261 0.666666 0.239082 Al
0.680261 0.166667 0.239082 Al
0.680261 0.500000 0.239082 Al
0.680261 0.833333 0.239082 Al
0.013594 0.166667 0.248989 Al
0.013594 0.500000 0.248989 Al
0.013594 0.833333 0.248989 Al
0.513594 0.000000 0.248989 Al
0.513594 0.333333 0.248989 Al
0.513594 0.666666 0.248989 Al
0.346927 0.166667 0.283081 Al
0.346927 0.500000 0.283081 Al
0.346927 0.833333 0.283081 Al
0.846927 0.000000 0.283081 Al
0.846927 0.333333 0.283081 Al
0.846927 0.666667 0.283081 Al
0.180260 0.000000 0.292988 Al
0.180260 0.333333 0.292988 Al
0.180260 0.666666 0.292988 Al
0.680261 0.166667 0.292988 Al
0.680261 0.500000 0.292988 Al
0.680261 0.833333 0.292988 Al
0.013594 0.166667 0.063090 Al
0.013594 0.166667 0.327079 Al
0.013594 0.500000 0.063090 Al
0.013594 0.500000 0.327079 Al
0.013594 0.833333 0.063090 Al
0.013594 0.833333 0.327079 Al
0.513594 0.000000 0.063090 Al
0.513594 0.000000 0.327079 Al
0.513594 0.333333 0.063090 Al
0.513594 0.333333 0.327079 Al
0.513594 0.666666 0.063090 Al
0.513594 0.666666 0.327079 Al
0.346927 0.166667 0.072996 Al
0.346927 0.166667 0.336984 Al
0.346927 0.500000 0.072996 Al
0.346927 0.500000 0.336984 Al
0.346927 0.833333 0.072996 Al
0.346927 0.833333 0.336984 Al
0.846927 0.000000 0.072996 Al
0.846927 0.000000 0.336984 Al
0.846927 0.333333 0.072996 Al
0.846927 0.333333 0.336984 Al
0.846927 0.666667 0.072996 Al
0.846927 0.666667 0.336984 Al
0.180261 0.000000 0.107089 Al
0.180261 0.333333 0.107089 Al
0.180261 0.666666 0.107089 Al
0.680261 0.166667 0.107089 Al
0.680261 0.500000 0.107089 Al
0.680261 0.833333 0.107089 Al
0.013594 0.166667 0.373307 Al
0.013594 0.500000 0.373307 Al
0.013594 0.833333 0.373307 Al
0.513594 0.000000 0.373307 Al
0.513594 0.333333 0.373307 Al
0.513594 0.666666 0.373307 Al
0.346927 0.166667 0.383213 Al
0.346927 0.500000 0.383213 Al
0.346927 0.833333 0.383213 Al
0.846927 0.000000 0.383213 Al
0.846927 0.333333 0.383213 Al
0.846927 0.666667 0.383213 Al
0.360521 0.282309 0.400259 O
0.360521 0.615642 0.400259 O
0.360521 0.948975 0.400259 O
0.860521 0.115643 0.400259 O
0.860521 0.448976 0.400259 O
0.860521 0.782309 0.400259 O
0.166667 0.115642 0.400259 O
0.166667 0.448976 0.400259 O
0.166667 0.782309 0.400259 O
0.666667 0.282309 0.400259 O
0.666667 0.615642 0.400259 O
0.666667 0.948975 0.400259 O
0.013594 0.268715 0.400259 O
0.013594 0.602048 0.400259 O
0.013594 0.935382 0.400259 O
0.513594 0.102049 0.400259 O
0.513594 0.435382 0.400259 O
0.513594 0.768715 0.400259 O
0.346927 0.064618 0.178038 O
0.346927 0.397951 0.178038 O
0.346927 0.731284 0.178038 O
0.846927 0.231285 0.178038 O
0.846927 0.564618 0.178038 O
0.846927 0.897951 0.178038 O
0.027187 0.282309 0.134040 O
0.027187 0.615642 0.134040 O
0.027187 0.948975 0.134040 O
0.527187 0.115642 0.134040 O
0.527187 0.448976 0.134040 O
0.527187 0.782309 0.134040 O
0.000000 0.051024 0.178038 O
0.000000 0.384357 0.178038 O
0.000000 0.717691 0.178038 O
0.500000 0.217691 0.178038 O
0.500000 0.551024 0.178038 O
0.500000 0.884357 0.178038 O
0.193854 0.217691 0.178038 O
0.193854 0.551024 0.178038 O
0.193854 0.884357 0.178038 O
0.693854 0.051025 0.178038 O
0.693854 0.384358 0.178038 O
0.693854 0.717691 0.178038 O
0.333334 0.282309 0.134040 O
0.333334 0.615642 0.134040 O
0.333334 0.948975 0.134040 O
0.833334 0.115642 0.134040 O
0.833334 0.448976 0.134040 O
0.833334 0.782309 0.134040 O
0.180261 0.102049 0.134040 O
0.180261 0.435382 0.134040 O
0.180261 0.768715 0.134040 O
0.680261 0.268715 0.134040 O
0.680261 0.602049 0.134040 O
0.680261 0.935382 0.134040 O
0.180261 0.231285 0.266034 O
0.180261 0.564618 0.266034 O
0.180261 0.897951 0.266034 O
0.680261 0.064618 0.266034 O
0.680261 0.397951 0.266034 O
0.680261 0.731284 0.266034 O
0.360521 0.282309 0.222036 O
0.360521 0.615642 0.222036 O
0.360521 0.948975 0.222036 O
0.860521 0.115643 0.222036 O
0.860521 0.448976 0.222036 O
0.860521 0.782309 0.222036 O
0.333334 0.051025 0.266034 O
0.333334 0.384358 0.266034 O
0.333334 0.717691 0.266034 O
0.833334 0.217691 0.266034 O
0.833334 0.551024 0.266034 O
0.833334 0.884357 0.266034 O
0.027187 0.051025 0.266034 O
0.027187 0.384358 0.266034 O
0.027187 0.717691 0.266034 O
0.527187 0.217691 0.266034 O
0.527187 0.551024 0.266034 O
0.527187 0.884357 0.266034 O
0.166667 0.115642 0.222036 O
0.166667 0.448976 0.222036 O
0.166667 0.782309 0.222036 O
0.666667 0.282309 0.222036 O
0.666667 0.615642 0.222036 O
0.666667 0.948975 0.222036 O
0.013594 0.268715 0.222036 O
0.013594 0.602048 0.222036 O
0.013594 0.935382 0.222036 O
0.513594 0.102049 0.222036 O
0.513594 0.435382 0.222036 O
0.513594 0.768715 0.222036 O
0.013594 0.064618 0.090041 O
0.013594 0.064618 0.354031 O
0.013594 0.397951 0.090041 O
0.013594 0.397951 0.354031 O
0.013594 0.731284 0.090041 O
0.013594 0.731284 0.354031 O
0.513594 0.231285 0.090041 O
0.513594 0.231285 0.354031 O
0.513594 0.564618 0.090041 O
0.513594 0.564618 0.354031 O
0.513594 0.897951 0.090041 O
0.513594 0.897951 0.354031 O
0.193854 0.115642 0.310033 O
0.193854 0.448976 0.310033 O
0.193854 0.782309 0.310033 O
0.693854 0.282309 0.310033 O
0.693854 0.615642 0.310033 O
0.693854 0.948975 0.310033 O
0.166667 0.217691 0.090041 O
0.166667 0.217691 0.354031 O
0.166667 0.551024 0.090041 O
0.166667 0.551025 0.354031 O
0.166667 0.884357 0.090041 O
0.166667 0.884357 0.354031 O
0.666667 0.051025 0.090041 O
0.666667 0.051025 0.354031 O
0.666667 0.384358 0.090041 O
0.666667 0.384358 0.354031 O
0.666667 0.717691 0.090041 O
0.666667 0.717691 0.354031 O
0.360521 0.051024 0.090041 O
0.360521 0.051025 0.354031 O
0.360521 0.384357 0.090041 O
0.360521 0.384358 0.354031 O
0.360521 0.717691 0.090041 O
0.360521 0.717691 0.354031 O
0.860521 0.217691 0.090041 O
0.860521 0.217691 0.354031 O
0.860521 0.551024 0.090041 O
0.860521 0.551025 0.354031 O
0.860521 0.884357 0.090041 O
0.860521 0.884357 0.354031 O
0.000000 0.282309 0.310033 O
0.000000 0.615642 0.310033 O
0.000000 0.948975 0.310033 O
0.500000 0.115643 0.310033 O
0.500000 0.448976 0.310033 O
0.500000 0.782309 0.310033 O
0.346927 0.268715 0.310033 O
0.346927 0.602048 0.310033 O
0.346927 0.935381 0.310033 O
0.846927 0.102049 0.310033 O
0.846927 0.435382 0.310033 O
0.846927 0.768715 0.310033 O
0.833335 0.006526 0.810877 Al
0.166667 0.006526 0.810877 Al
0.833335 0.008701 0.670079 Al
0.166667 0.008701 0.670079 Al
0.500001 0.119087 0.717165 Al
0.833335 0.229473 0.764250 Al
0.166667 0.229473 0.764250 Al
0.500001 0.339859 0.811336 Al
0.833335 0.010877 0.529280 Al
0.166667 0.010877 0.529280 Al
0.500001 0.121262 0.576367 Al
0.833335 0.231648 0.623452 Al
0.166667 0.231648 0.623452 Al
0.500001 0.342034 0.670538 Al
0.833335 0.452420 0.717624 Al
0.166667 0.452420 0.717624 Al
0.500001 0.562806 0.764710 Al
0.833335 0.673192 0.811796 Al
0.166667 0.673192 0.811796 Al
0.500001 0.123438 0.433366 Al
0.833335 0.233824 0.480453 Al
0.166667 0.233824 0.480453 Al
0.500001 0.344210 0.529740 Al
0.833335 0.454595 0.576826 Al
0.166667 0.454595 0.576826 Al
0.500001 0.564981 0.623911 Al
0.833335 0.675367 0.670998 Al
0.166667 0.675367 0.670998 Al
0.500001 0.785753 0.718084 Al
0.833335 0.896139 0.765169 Al
0.166667 0.896139 0.765169 Al
0.833335 0.456771 0.433826 Al
0.166667 0.456771 0.433826 Al
0.500001 0.567157 0.480912 Al
0.833335 0.677543 0.530199 Al
0.166667 0.677543 0.530199 Al
0.500001 0.787928 0.577286 Al
0.833335 0.898314 0.624371 Al
0.166667 0.898314 0.624371 Al
0.500001 0.790104 0.434285 Al
0.833335 0.900490 0.481371 Al
0.166667 0.900490 0.481371 Al
0.500001 0.006526 0.810877 Al
0.500001 0.008701 0.670079 Al
0.833335 0.119087 0.717165 Al
0.166667 0.119087 0.717165 Al
0.500001 0.229473 0.764250 Al
0.833335 0.339859 0.811336 Al
0.166667 0.339859 0.811336 Al
0.500001 0.010877 0.529280 Al
0.833335 0.121262 0.576367 Al
0.166667 0.121262 0.576367 Al
0.500001 0.231648 0.623452 Al
0.833335 0.342034 0.670538 Al
0.166667 0.342034 0.670538 Al
0.500001 0.452420 0.717624 Al
0.833335 0.562806 0.764710 Al
0.166667 0.562806 0.764710 Al
0.500001 0.673192 0.811796 Al
0.833335 0.123438 0.433366 Al
0.166667 0.123438 0.433366 Al
0.500001 0.233824 0.480453 Al
0.833335 0.344210 0.529740 Al
0.166667 0.344210 0.529740 Al
0.500001 0.454595 0.576826 Al
0.833335 0.564981 0.623911 Al
0.166667 0.564981 0.623911 Al
0.500001 0.675367 0.670998 Al
0.833335 0.785753 0.718084 Al
0.166667 0.785753 0.718084 Al
0.500001 0.896139 0.765169 Al
0.500001 0.456771 0.433826 Al
0.833335 0.567157 0.480912 Al
0.166667 0.567157 0.480912 Al
0.500001 0.677543 0.530199 Al
0.833335 0.787928 0.577286 Al
0.166667 0.787928 0.577286 Al
0.500001 0.898314 0.624371 Al
0.833335 0.790104 0.434285 Al
0.166667 0.790104 0.434285 Al
0.500001 0.900490 0.481371 Al
0.666668 0.062807 0.764021 Al
0.000000 0.062807 0.764021 Al
0.333334 0.173192 0.811108 Al
0.666668 0.064982 0.623222 Al
0.000000 0.064982 0.623222 Al
0.333334 0.175368 0.670308 Al
0.666668 0.285754 0.717395 Al
0.000000 0.285754 0.717395 Al
0.333334 0.396140 0.764481 Al
0.666668 0.506525 0.811567 Al
0.000000 0.506525 0.811567 Al
0.666668 0.067157 0.480222 Al
0.000000 0.067157 0.480222 Al
0.333334 0.177543 0.529510 Al
0.666668 0.287929 0.576595 Al
0.000000 0.287929 0.576595 Al
0.333334 0.398315 0.623682 Al
0.666668 0.508701 0.670768 Al
0.000000 0.508701 0.670768 Al
0.333334 0.619087 0.717854 Al
0.666668 0.729473 0.764940 Al
0.000000 0.729473 0.764940 Al
0.333334 0.839859 0.812027 Al
0.666668 0.290104 0.433595 Al
0.000000 0.290104 0.433595 Al
0.333334 0.400490 0.480681 Al
0.666668 0.510876 0.529970 Al
0.000000 0.510876 0.529970 Al
0.333334 0.621262 0.577055 Al
0.666668 0.731648 0.624141 Al
0.000000 0.731648 0.624141 Al
0.333334 0.842034 0.671227 Al
0.666668 0.952420 0.718314 Al
0.000000 0.952420 0.718314 Al
0.333334 0.623437 0.434055 Al
0.666668 0.733823 0.481141 Al
0.000000 0.733823 0.481141 Al
0.333334 0.844209 0.530429 Al
0.666668 0.954595 0.577514 Al
0.000000 0.954595 0.577514 Al
0.666668 0.956770 0.434514 Al
0.000000 0.956770 0.434514 Al
0.333334 0.062807 0.764021 Al
0.666668 0.173192 0.811108 Al
0.000000 0.173192 0.811108 Al
0.333334 0.064982 0.623222 Al
0.666668 0.175368 0.670308 Al
0.000000 0.175368 0.670308 Al
0.333334 0.285754 0.717395 Al
0.666668 0.396140 0.764481 Al
0.000000 0.396140 0.764481 Al
0.333334 0.506525 0.811567 Al
0.333334 0.067157 0.480222 Al
0.666668 0.177543 0.529510 Al
0.000000 0.177543 0.529510 Al
0.333334 0.287929 0.576595 Al
0.666668 0.398315 0.623682 Al
0.000000 0.398315 0.623682 Al
0.333334 0.508701 0.670768 Al
0.666668 0.619087 0.717854 Al
0.000000 0.619087 0.717854 Al
0.333334 0.729473 0.764940 Al
0.666668 0.839859 0.812027 Al
0.000000 0.839859 0.812027 Al
0.333334 0.290104 0.433595 Al
0.666668 0.400490 0.480681 Al
0.000000 0.400490 0.480681 Al
0.333334 0.510876 0.529970 Al
0.666668 0.621262 0.577055 Al
0.000000 0.621262 0.577055 Al
0.333334 0.731648 0.624141 Al
0.666668 0.842034 0.671227 Al
0.000000 0.842034 0.671227 Al
0.333334 0.952420 0.718314 Al
0.666668 0.623437 0.434055 Al
0.000000 0.623437 0.434055 Al
0.333334 0.733823 0.481141 Al
0.666668 0.844209 0.530429 Al
0.000000 0.844209 0.530429 Al
0.333334 0.954595 0.577514 Al
0.333334 0.956770 0.434514 Al
