Ti7 O11
1.0
18.000000 0.000000 0.000000
0.000000 18.000000 0.000000
0.000000 0.000000 18.000000
Ti O
7 11
direct
0.414984 0.499892 0.429107 Ti
0.559278 0.393989 0.480244 Ti
0.458788 0.648500 0.406843 Ti
0.581256 0.501792 0.375619 Ti
0.486210 0.402907 0.618678 Ti
0.534615 0.543383 0.552757 Ti
0.471789 0.688256 0.567300 Ti
0.347037 0.449787 0.472457 O
0.499600 0.435166 0.393159 O
0.611578 0.494949 0.479247 O
0.623789 0.406411 0.388377 O
0.377869 0.603056 0.435079 O
0.512793 0.565672 0.440254 O
0.486587 0.337540 0.535659 O
0.474027 0.463396 0.518717 O
0.578333 0.432159 0.585161 O
0.491863 0.504716 0.645067 O
0.441041 0.602706 0.581072 O
