Ti7 O11
1.0
18.000000 0.000000 0.000000
0.000000 18.000000 0.000000
0.000000 0.000000 18.000000
Ti O
7 11
Selective dynamics
direct
0.393058 0.468591 0.394938 F F F Ti
0.365252 0.558663 0.577533 F F F Ti
0.480331 0.418844 0.658394 F F F Ti
0.643494 0.455874 0.435809 F F F Ti
0.449223 0.578544 0.496456 F F F Ti
0.534403 0.432552 0.500415 F F F Ti
0.334081 0.487194 0.472291 F F F Ti
0.647019 0.465082 0.556016 F F F O
0.644133 0.569083 0.457508 F F F O
0.439207 0.563344 0.381356 F F F O
0.419456 0.478526 0.496758 F F F O
0.508056 0.436938 0.391231 F F F O
0.477605 0.580541 0.623911 F F F O
0.448283 0.321088 0.496028 F F F O
0.550986 0.516365 0.495875 F F F O
0.596169 0.380509 0.465419 F F F O
0.449721 0.668648 0.489217 F F F O
0.597417 0.499747 0.623678 F F F O
