Ti7 O10
1.0
18.000000 0.000000 0.000000
0.000000 18.000000 0.000000
0.000000 0.000000 18.000000
Ti O
7 10
direct
0.426143 0.381419 0.446546 Ti
0.559067 0.472488 0.464753 Ti
0.403889 0.542854 0.448282 Ti
0.529416 0.634239 0.442413 Ti
0.486561 0.518917 0.610000 Ti
0.643656 0.519712 0.601461 Ti
0.415863 0.667089 0.547769 Ti
0.353803 0.453858 0.418667 O
0.533188 0.380513 0.429109 O
0.430641 0.659656 0.447003 O
0.503141 0.545257 0.400456 O
0.405633 0.353587 0.533918 O
0.461106 0.472239 0.505946 O
0.566122 0.451111 0.575244 O
0.395317 0.569244 0.556794 O
0.563639 0.584444 0.614772 O
0.648711 0.492689 0.690950 O
