Ti7 O11
1.0
18.000000 0.000000 0.000000
0.000000 18.000000 0.000000
0.000000 0.000000 18.000000
Ti O
7 11
direct
0.425936 0.492430 0.418572 Ti
0.653517 0.462743 0.352953 Ti
0.547594 0.402329 0.460324 Ti
0.576183 0.565772 0.438698 Ti
0.451612 0.598878 0.536988 Ti
0.601472 0.525222 0.588494 Ti
0.527038 0.438202 0.685133 Ti
0.353096 0.494113 0.356099 O
0.449226 0.389523 0.444911 O
0.549476 0.472013 0.379467 O
0.471653 0.592711 0.420663 O
0.678028 0.524613 0.421949 O
0.527652 0.495741 0.511770 O
0.434019 0.586561 0.630867 O
0.379538 0.526507 0.504876 O
0.568144 0.613389 0.540031 O
0.406968 0.682739 0.525212 O
0.545386 0.528308 0.676200 O
