Ti7 O11
1.0
18.000000 0.000000 0.000000
0.000000 18.000000 0.000000
0.000000 0.000000 18.000000
Ti O
7 11
direct
0.495219 0.383457 0.390988 Ti
0.468053 0.468130 0.324953 Ti
0.363198 0.479351 0.461511 Ti
0.603652 0.389124 0.570526 Ti
0.539817 0.615597 0.542437 Ti
0.379087 0.609863 0.445529 Ti
0.504190 0.419103 0.489430 Ti
0.667404 0.563281 0.546632 O
0.380789 0.531973 0.618844 O
0.487325 0.517055 0.546037 O
0.383235 0.579949 0.387534 O
0.519583 0.339407 0.416546 O
0.394193 0.446034 0.427175 O
0.505233 0.660843 0.603817 O
0.639339 0.392833 0.511880 O
0.522562 0.583916 0.350294 O
0.426418 0.411287 0.600068 O
0.423197 0.398802 0.355326 O
